LAMMPS data file.

    100 atoms
    291 bonds
   1431 angles
      0 dihedrals
      0 impropers
      1 atom types
    291 bond types
   1431 angle types
      0 dihedral types
      0 improper types
  -5.486255   5.486255 xlo xhi
  -5.486255   5.486255 ylo yhi
  -0.100000   0.100000 zlo zhi
0.0 0.0 0.0 xy xz yz

Masses # ['atom_id', 'mass']

1 1000000.0

Atoms # ['atomID', 'moleculeID', 'atomType', 'charge', 'x', 'y', 'z']

      1      1      1   0.000000  -4.178570  -4.867740   0.000000
      2      1      1   0.000000  -2.651120  -4.636530   0.000000
      3      1      1   0.000000  -1.473640  -5.439530   0.000000
      4      1      1   0.000000  -0.509842  -4.858720   0.000000
      5      1      1   0.000000   0.343775  -5.058400   0.000000
      6      1      1   0.000000   1.275630  -4.797210   0.000000
      7      1      1   0.000000   3.218940  -5.479900   0.000000
      8      1      1   0.000000   2.453380  -4.360610   0.000000
      9      1      1   0.000000   4.310540  -5.447410   0.000000
     10      1      1   0.000000   3.939860  -4.506570   0.000000
     11      1      1   0.000000   5.240300  -4.869800   0.000000
     12      1      1   0.000000  -4.950700  -4.025550   0.000000
     13      1      1   0.000000  -3.627280  -3.603440   0.000000
     14      1      1   0.000000  -2.299580  -3.404230   0.000000
     15      1      1   0.000000  -1.332080  -4.126640   0.000000
     16      1      1   0.000000  -0.661172  -3.280780   0.000000
     17      1      1   0.000000   0.225604  -3.952010   0.000000
     18      1      1   0.000000   1.351940  -3.886950   0.000000
     19      1      1   0.000000   3.367320  -3.340550   0.000000
     20      1      1   0.000000   4.863030  -3.503150   0.000000
     21      1      1   0.000000  -4.819010  -2.820570   0.000000
     22      1      1   0.000000  -3.756270  -2.464570   0.000000
     23      1      1   0.000000  -2.901110  -2.696490   0.000000
     24      1      1   0.000000  -2.172610  -2.336600   0.000000
     25      1      1   0.000000  -1.342820  -2.787180   0.000000
     26      1      1   0.000000  -0.027836  -2.442830   0.000000
     27      1      1   0.000000   0.969209  -3.063140   0.000000
     28      1      1   0.000000   2.025190  -3.106240   0.000000
     29      1      1   0.000000   4.045390  -2.373550   0.000000
     30      1      1   0.000000   5.022920  -2.462270   0.000000
     31      1      1   0.000000  -5.371990  -1.800750   0.000000
     32      1      1   0.000000  -4.287900  -1.392110   0.000000
     33      1      1   0.000000  -3.006110  -1.777870   0.000000
     34      1      1   0.000000  -2.244500  -1.310380   0.000000
     35      1      1   0.000000  -1.316470  -1.849200   0.000000
     36      1      1   0.000000  -0.540720  -1.344460   0.000000
     37      1      1   0.000000   0.402865  -1.326360   0.000000
     38      1      1   0.000000   1.367860  -1.960650   0.000000
     39      1      1   0.000000   2.740610  -2.107490   0.000000
     40      1      1   0.000000   3.553110  -1.180820   0.000000
     41      1      1   0.000000   4.692460  -1.545370   0.000000
     42      1      1   0.000000  -5.328320  -1.009030   0.000000
     43      1      1   0.000000  -3.261230  -0.482156   0.000000
     44      1      1   0.000000  -2.141560  -0.353129   0.000000
     45      1      1   0.000000  -1.252170  -0.841197   0.000000
     46      1      1   0.000000  -0.124916  -0.295953   0.000000
     47      1      1   0.000000   1.220710  -0.705205   0.000000
     48      1      1   0.000000   2.003580  -0.028198   0.000000
     49      1      1   0.000000   2.288530  -1.030710   0.000000
     50      1      1   0.000000   3.124050   0.022365   0.000000
     51      1      1   0.000000   4.725410  -0.361571   0.000000
     52      1      1   0.000000  -4.715980   0.024491   0.000000
     53      1      1   0.000000  -3.677180   0.793686   0.000000
     54      1      1   0.000000  -2.369460   0.593077   0.000000
     55      1      1   0.000000  -1.235560   0.274163   0.000000
     56      1      1   0.000000  -0.252921   0.941080   0.000000
     57      1      1   0.000000   0.944308   0.363061   0.000000
     58      1      1   0.000000   2.130300   1.155060   0.000000
     59      1      1   0.000000   4.173490   0.591257   0.000000
     60      1      1   0.000000   5.250800   0.882943   0.000000
     61      1      1   0.000000  -4.789970   1.437740   0.000000
     62      1      1   0.000000  -2.884930   1.722930   0.000000
     63      1      1   0.000000  -1.569660   1.657220   0.000000
     64      1      1   0.000000  -0.409118   2.205120   0.000000
     65      1      1   0.000000   0.884637   1.706300   0.000000
     66      1      1   0.000000   3.401030   1.382450   0.000000
     67      1      1   0.000000   4.412460   1.445230   0.000000
     68      1      1   0.000000   5.168520   2.066390   0.000000
     69      1      1   0.000000  -4.994560   2.827890   0.000000
     70      1      1   0.000000  -3.929900   2.161620   0.000000
     71      1      1   0.000000  -3.153060   2.751950   0.000000
     72      1      1   0.000000  -2.295080   2.516740   0.000000
     73      1      1   0.000000  -1.466810   3.125910   0.000000
     74      1      1   0.000000  -0.315117   3.321130   0.000000
     75      1      1   0.000000   0.384542   2.897950   0.000000
     76      1      1   0.000000   1.469590   3.028320   0.000000
     77      1      1   0.000000   2.656850   2.458690   0.000000
     78      1      1   0.000000   4.080890   2.439280   0.000000
     79      1      1   0.000000   4.922550   3.175220   0.000000
     80      1      1   0.000000  -5.154570   4.081810   0.000000
     81      1      1   0.000000  -3.891500   3.585650   0.000000
     82      1      1   0.000000  -2.659340   3.517310   0.000000
     83      1      1   0.000000  -0.751542   4.139720   0.000000
     84      1      1   0.000000   0.541590   3.990300   0.000000
     85      1      1   0.000000   1.775760   4.285290   0.000000
     86      1      1   0.000000   2.504850   3.595080   0.000000
     87      1      1   0.000000   3.620000   3.574200   0.000000
     88      1      1   0.000000   4.664030   4.170570   0.000000
     89      1      1   0.000000  -4.951800   5.203770   0.000000
     90      1      1   0.000000  -4.099470   4.764930   0.000000
     91      1      1   0.000000  -3.306320   5.354360   0.000000
     92      1      1   0.000000  -3.049680   4.483240   0.000000
     93      1      1   0.000000  -2.472850   5.193210   0.000000
     94      1      1   0.000000  -1.927190   4.355740   0.000000
     95      1      1   0.000000  -0.238016   5.079930   0.000000
     96      1      1   0.000000   1.010210   5.096790   0.000000
     97      1      1   0.000000   2.109500   5.351790   0.000000
     98      1      1   0.000000   2.848410   4.511890   0.000000
     99      1      1   0.000000   3.919880   4.652310   0.000000
    100      1      1   0.000000   5.127120   4.961040   0.000000

Bond Coeffs # ['bondID', 'bondCoeff', 'd']

      1   0.352743   1.544850
      2   0.295567   1.142571
      3   0.629006   1.379266
      4   0.312451   1.187302
      5   0.676791   1.342173
      6   0.389436   1.150624
      7   0.295654   1.425226
      8   0.260085   1.421324
      9   0.700531   1.281461
     10   0.227567   1.414162
     11   0.481252   1.180197
     12   0.744433   1.156592
     13   0.354307   1.125276
     14   0.691267   1.320500
     15   0.453532   1.055398
     16   0.607320   1.261587
     17   0.271404   1.316063
     18   0.673300   0.876661
     19   0.341860   1.100916
     20   0.425910   1.167477
     21   0.736027   1.068998
     22   0.536073   0.967767
     23   0.792222   1.112683
     24   0.577394   1.017024
     25   0.470262   1.054584
     26   0.365478   1.256071
     27   0.276772   1.347931
     28   0.940289   0.913453
     29   0.760841   1.110690
     30   0.311523   1.171968
     31   0.363912   1.356058
     32   0.568178   1.092084
     33   0.457267   1.211238
     34   0.491314   1.118341
     35   0.690568   1.048382
     36   0.498340   1.094268
     37   0.374828   1.493629
     38   0.362187   1.198968
     39   0.288590   1.369602
     40   0.644290   1.325440
     41   0.650633   1.306190
     42   0.686414   1.011229
     43   0.406148   1.094572
     44   0.678697   0.956231
     45   0.387840   0.992455
     46   0.358751   1.350215
     47   0.563813   1.299001
     48   0.276259   1.363486
     49   0.273156   1.150441
     50   0.653313   1.417768
     51   0.304156   1.190434
     52   0.792637   1.147267
     53   0.348890   1.389107
     54   0.307223   1.271091
     55   0.723041   1.212155
     56   0.411446   1.342562
     57   0.224262   1.425870
     58   0.760530   1.146152
     59   0.430872   1.161844
     60   0.255045   1.207449
     61   0.530629   0.928835
     62   0.816276   1.075154
     63   0.364781   1.138482
     64   0.482436   1.079628
     65   0.404785   1.567442
     66   0.677722   1.339503
     67   0.342131   1.112170
     68   0.526215   0.841597
     69   0.500572   1.050369
     70   0.474289   1.128214
     71   0.624947   1.530312
     72   0.377912   1.158895
     73   0.791261   0.908376
     74   0.477385   1.030909
     75   0.381474   1.504522
     76   0.399621   1.362429
     77   0.423278   1.181045
     78   0.532568   1.383186
     79   0.253530   1.459872
     80   0.395782   1.394464
     81   0.814927   1.053089
     82   0.411090   1.120782
     83   0.436323   1.185997
     84   0.543050   1.160095
     85   0.533467   1.524000
     86   0.627601   0.886051
     87   0.530888   1.196997
     88   0.448271   1.017004
     89   0.596047   0.812547
     90   0.875739   0.924601
     91   0.406752   0.944232
     92   0.448794   1.003445
     93   0.846265   1.028735
     94   0.457597   0.985157
     95   0.344085   1.359323
     96   0.891966   0.938350
     97   0.330285   1.174259
     98   0.527056   1.212216
     99   0.593522   1.196666
    100   0.308009   1.476640
    101   0.557612   1.056860
    102   0.702930   1.172351
    103   0.504983   1.320780
    104   0.413917   1.228547
    105   0.591219   0.981548
    106   0.402674   1.331630
    107   0.582514   1.290327
    108   0.456255   1.050991
    109   0.595410   0.878197
    110   0.791962   0.974633
    111   0.440519   1.158550
    112   0.571602   0.943287
    113   1.043272   0.792924
    114   0.361822   1.338580
    115   0.413291   1.108704
    116   0.198076   1.371885
    117   0.604881   1.479869
    118   0.429967   0.893642
    119   0.692135   1.320591
    120   0.461733   1.073111
    121   0.294317   1.311371
    122   0.895962   0.962770
    123   0.409496   1.097657
    124   0.397335   0.925500
    125   0.898237   1.010052
    126   0.674169   0.943759
    127   0.477807   0.871456
    128   0.655268   1.127945
    129   0.307711   1.154790
    130   0.514011   1.157709
    131   0.343111   1.026988
    132   0.403562   1.380581
    133   0.744674   1.264039
    134   0.287656   1.308595
    135   0.346289   1.232426
    136   0.662065   1.167832
    137   0.375382   1.196251
    138   0.440487   1.273458
    139   0.553744   1.277398
    140   0.195273   1.430194
    141   0.441038   1.092451
    142   0.792327   1.184258
    143   0.393497   1.123992
    144   0.494363   1.201302
    145   0.495850   1.127080
    146   0.238980   1.540451
    147   0.644706   1.341934
    148   0.359088   1.396918
    149   0.442421   1.014507
    150   0.819109   0.973265
    151   0.414784   1.101967
    152   0.381782   1.252195
    153   0.796342   1.115484
    154   0.336313   1.248424
    155   0.757701   1.243638
    156   0.201155   1.256001
    157   0.473116   1.034999
    158   0.454489   1.116330
    159   0.709534   1.103445
    160   0.736208   1.042222
    161   0.482584   1.121610
    162   0.428309   1.129221
    163   0.702136   1.190024
    164   0.389558   1.344269
    165   0.337414   1.506830
    166   0.251043   1.193718
    167   0.647131   1.388002
    168   0.343947   1.579041
    169   0.480654   1.101134
    170   0.615308   1.350870
    171   0.223025   1.292581
    172   0.223157   1.322282
    173   0.624571   1.415184
    174   0.432840   1.323017
    175   0.379774   1.285732
    176   0.346770   1.221128
    177   0.644613   1.391083
    178   0.426629   1.177894
    179   0.626954   1.241884
    180   0.361322   1.331195
    181   0.275348   1.187585
    182   0.637378   1.422838
    183   0.280529   1.329460
    184   0.231270   1.498886
    185   0.724862   1.273654
    186   0.271618   1.370985
    187   0.268042   1.426127
    188   0.700218   1.344564
    189   0.179362   1.362183
    190   0.423250   1.290915
    191   0.553198   1.405954
    192   0.545538   1.116099
    193   0.417237   1.105749
    194   0.838840   0.886779
    195   0.405752   1.084407
    196   0.459481   1.009446
    197   0.749524   1.186304
    198   0.269250   1.193079
    199   0.267173   1.124154
    200   0.455224   1.316910
    201   0.393413   1.133319
    202   0.787216   1.063380
    203   0.571290   0.988968
    204   0.256862   1.283375
    205   0.381700   1.124726
    206   0.637122   1.472287
    207   0.354332   1.386587
    208   0.266534   1.402343
    209   0.738934   1.119962
    210   0.410636   1.053522
    211   0.591149   1.292333
    212   0.478625   1.445651
    213   0.575176   1.013376
    214   0.410188   1.308471
    215   0.479066   1.256622
    216   0.445161   0.978502
    217   0.740027   1.047890
    218   0.331800   1.111332
    219   0.415868   1.149776
    220   0.765104   1.135784
    221   0.235594   1.255952
    222   0.502800   1.111083
    223   0.674710   1.264088
    224   0.268758   1.338261
    225   0.426847   0.975689
    226   0.656181   1.424548
    227   0.633934   0.889637
    228   0.387036   1.113710
    229   0.668391   0.910788
    230   0.372488   1.028163
    231   0.750810   1.064812
    232   0.453985   1.168121
    233   0.401199   1.255118
    234   0.518165   1.240733
    235   0.620113   1.313176
    236   0.585102   0.817682
    237   0.568680   0.927662
    238   0.338291   1.087076
    239   0.521884   1.092852
    240   0.790212   1.103582
    241   0.223516   1.316839
    242   0.363665   1.336634
    243   0.649499   1.293721
    244   0.371476   1.180246
    245   0.424069   1.424172
    246   0.789295   1.146510
    247   0.349207   1.473777
    248   0.343178   1.118034
    249   0.645911   1.224934
    250   0.297811   1.274216
    251   0.367586   1.362286
    252   0.750724   1.028374
    253   0.247967   1.357026
    254   0.549585   1.157318
    255   0.720338   1.140136
    256   0.281364   1.256936
    257   0.485449   1.118158
    258   0.493406   1.234054
    259   0.747601   1.197478
    260   0.349916   1.230581
    261   0.730176   1.041819
    262   0.442914   1.113108
    263   0.344447   1.195330
    264   0.484291   1.071309
    265   0.381931   1.268934
    266   0.337596   1.339805
    267   0.670353   1.201634
    268   0.435156   1.003973
    269   0.364773   1.115616
    270   0.743738   1.117499
    271   0.497977   1.096323
    272   0.464953   1.115345
    273   0.783399   0.979068
    274   0.350426   1.202354
    275   0.371531   1.214337
    276   0.774395   1.119039
    277   0.403496   0.886472
    278   0.625885   0.916131
    279   0.454246   0.958669
    280   0.570595   0.925970
    281   0.427533   0.988188
    282   0.474088   1.086926
    283   0.863764   0.908138
    284   0.704049   0.848906
    285   0.571998   0.914762
    286   0.518567   1.129708
    287   0.602658   0.999550
    288   0.480314   1.248340
    289   0.471635   1.128478
    290   0.410859   1.118669
    291   0.508975   1.080632

Bonds # ['ID', 'type', 'atom1', 'atom2']

         1         1         1         2
         2         2         1        12
         3         3         1        13
         4         4         1        89
         5         5         1        90
         6         6         1        91
         7         7         2         3
         8         8         2        13
         9         9         2        14
        10        10         2        15
        11        11         2        91
        12        12         2        93
        13        13         3         4
        14        14         3        15
        15        15         3        93
        16        16         3        94
        17        17         3        95
        18        18         4         5
        19        19         4        15
        20        20         4        17
        21        21         4        95
        22        22         5         6
        23        23         5        17
        24        24         5        95
        25        25         5        96
        26        26         6         8
        27        27         6        17
        28        28         6        18
        29        29         6        96
        30        30         6        97
        31        31         7         8
        32        32         7         9
        33        33         7        10
        34        34         7        97
        35        35         7        98
        36        36         7        99
        37        37         8        10
        38        38         8        18
        39        39         8        19
        40        40         8        28
        41        41         8        97
        42        42         9        10
        43        43         9        11
        44        44         9        99
        45        45         9       100
        46        46        10        11
        47        47        10        19
        48        48        10        20
        49        49        11        12
        50        50        11        20
        51        51        11        89
        52        52        11       100
        53        53        12        13
        54        54        12        20
        55        55        12        21
        56        56        13        14
        57        57        13        21
        58        58        13        22
        59        59        13        23
        60        60        14        15
        61        61        14        23
        62        62        14        24
        63        63        14        25
        64        64        15        16
        65        65        15        17
        66        66        15        25
        67        67        16        17
        68        68        16        25
        69        69        16        26
        70        70        17        18
        71        71        17        26
        72        72        17        27
        73        73        18        27
        74        74        18        28
        75        75        19        20
        76        76        19        28
        77        77        19        29
        78        78        19        39
        79        79        20        21
        80        80        20        29
        81        81        20        30
        82        82        21        22
        83        83        21        30
        84        84        21        31
        85        85        21        32
        86        86        22        23
        87        87        22        32
        88        88        22        33
        89        89        23        24
        90        90        23        33
        91        91        24        25
        92        92        24        33
        93        93        24        34
        94        94        24        35
        95        95        25        26
        96        96        25        35
        97        97        26        27
        98        98        26        36
        99        99        26        37
       100       100        26        38
       101       101        27        28
       102       102        27        38
       103       103        28        38
       104       104        28        39
       105       105        29        30
       106       106        29        39
       107       107        29        40
       108       108        29        41
       109       109        30        31
       110       110        30        41
       111       111        31        32
       112       112        31        41
       113       113        31        42
       114       114        32        33
       115       115        32        42
       116       116        32        43
       117       117        32        52
       118       118        33        34
       119       119        33        43
       120       120        34        35
       121       121        34        43
       122       122        34        44
       123       123        34        45
       124       124        35        36
       125       125        35        45
       126       126        36        37
       127       127        36        45
       128       128        36        46
       129       129        37        38
       130       130        37        46
       131       131        37        47
       132       132        38        39
       133       133        38        47
       134       134        38        49
       135       135        39        40
       136       136        39        49
       137       137        40        41
       138       138        40        49
       139       139        40        50
       140       140        40        51
       141       141        41        42
       142       142        41        51
       143       143        42        51
       144       144        42        52
       145       145        43        44
       146       146        43        52
       147       147        43        53
       148       148        43        54
       149       149        44        45
       150       150        44        54
       151       151        44        55
       152       152        45        46
       153       153        45        55
       154       154        46        55
       155       155        46        56
       156       156        46        57
       157       157        47        48
       158       158        47        49
       159       159        47        57
       160       160        48        49
       161       161        48        50
       162       162        48        57
       163       163        48        58
       164       164        49        50
       165       165        50        58
       166       166        50        59
       167       167        50        66
       168       168        51        52
       169       169        51        59
       170       170        51        60
       171       171        52        53
       172       172        52        60
       173       173        52        61
       174       174        53        54
       175       175        53        61
       176       176        53        62
       177       177        53        70
       178       178        54        55
       179       179        54        62
       180       180        54        63
       181       181        55        56
       182       182        55        63
       183       183        56        57
       184       184        56        63
       185       185        56        64
       186       186        56        65
       187       187        57        58
       188       188        57        65
       189       189        58        65
       190       190        58        66
       191       191        58        77
       192       192        59        60
       193       193        59        66
       194       194        59        67
       195       195        60        61
       196       196        60        67
       197       197        60        68
       198       198        61        68
       199       199        61        70
       200       200        62        63
       201       201        62        70
       202       202        62        71
       203       203        62        72
       204       204        63        64
       205       205        63        72
       206       206        63        73
       207       207        64        65
       208       208        64        73
       209       209        64        74
       210       210        64        75
       211       211        65        75
       212       212        65        76
       213       213        66        67
       214       214        66        77
       215       215        66        78
       216       216        67        68
       217       217        67        78
       218       218        68        69
       219       219        68        78
       220       220        68        79
       221       221        69        70
       222       222        69        79
       223       223        69        80
       224       224        69        81
       225       225        70        71
       226       226        70        81
       227       227        71        72
       228       228        71        81
       229       229        71        82
       230       230        72        73
       231       231        72        82
       232       232        73        74
       233       233        73        82
       234       234        73        83
       235       235        73        94
       236       236        74        75
       237       237        74        83
       238       238        74        84
       239       239        75        76
       240       240        75        84
       241       241        76        77
       242       242        76        84
       243       243        76        85
       244       244        76        86
       245       245        77        78
       246       246        77        86
       247       247        77        87
       248       248        78        79
       249       249        78        87
       250       250        79        80
       251       251        79        87
       252       252        79        88
       253       253        80        81
       254       254        80        88
       255       255        80        89
       256       256        80        90
       257       257        80       100
       258       258        81        82
       259       259        81        90
       260       260        81        92
       261       261        82        92
       262       262        82        94
       263       263        83        94
       264       264        83        95
       265       265        84        85
       266       266        84        95
       267       267        84        96
       268       268        85        86
       269       269        85        96
       270       270        85        97
       271       271        85        98
       272       272        86        87
       273       273        86        98
       274       274        87        88
       275       275        87        98
       276       276        87        99
       277       277        88        99
       278       278        88       100
       279       279        89        90
       280       280        89       100
       281       281        90        91
       282       282        90        92
       283       283        91        92
       284       284        91        93
       285       285        92        93
       286       286        92        94
       287       287        93        94
       288       288        95        96
       289       289        96        97
       290       290        97        98
       291       291        98        99

Angle Coeffs # ['angleID', 'energy', 'value (deg)']

    512   0.000000  58.556948
     74   0.000000 110.449754
    507   0.000000 170.973608
    497   0.000000  69.596429
     64   0.000000  68.272557
    384   0.000000 117.887238
    558   0.000000 152.788721
    174   0.000000  48.750423
   1344   0.000000 117.003375
   1402   0.000000  57.528808
    251   0.000000  42.137596
    196   0.000000 123.715846
   1266   0.000000  54.993777
    403   0.000000  81.972770
    868   0.000000 143.659132
    743   0.000000  52.960439
    259   0.000000  43.343849
    225   0.000000 136.855516
    367   0.000000 111.271192
    640   0.000000  77.288596
    805   0.000000 168.536509
    281   0.000000 118.809479
    509   0.000000  55.444948
     65   0.000000 142.359516
   1414   0.000000 162.751094
    659   0.000000 173.481840
    733   0.000000  94.866037
   1159   0.000000 142.680551
     29   0.000000 102.901133
   1010   0.000000 116.764515
   1374   0.000000 104.599532
    625   0.000000  39.695099
    753   0.000000 157.164503
   1196   0.000000  67.041605
    850   0.000000  57.605484
    129   0.000000 146.138991
   1258   0.000000  46.766011
    118   0.000000  47.882725
   1361   0.000000 173.749104
    414   0.000000 111.185024
    912   0.000000  47.878827
   1280   0.000000 145.832760
     19   0.000000 167.472940
    854   0.000000  88.123609
    944   0.000000  55.012834
    798   0.000000  50.406624
   1413   0.000000 124.622595
   1199   0.000000  63.132757
    952   0.000000 136.636839
   1396   0.000000 118.280195
    828   0.000000  57.418646
   1306   0.000000 160.339766
    345   0.000000 145.535900
    285   0.000000 123.146545
   1337   0.000000 138.406943
    546   0.000000 154.835589
    602   0.000000 158.585961
    139   0.000000 170.002231
    248   0.000000 133.988525
   1299   0.000000 116.139425
    672   0.000000 158.785981
     24   0.000000  55.427197
    765   0.000000  46.520243
    688   0.000000  63.654077
   1211   0.000000  52.151387
    326   0.000000  99.948045
    496   0.000000  62.111825
    404   0.000000 127.577713
    330   0.000000  48.863456
    976   0.000000 142.597842
    856   0.000000  91.619589
    277   0.000000 173.179237
    142   0.000000  52.890381
    937   0.000000 106.270008
    718   0.000000  98.835309
   1257   0.000000 164.042499
   1351   0.000000  50.433162
    177   0.000000 149.978847
    158   0.000000  96.247380
   1187   0.000000  60.349236
    300   0.000000 161.937550
    924   0.000000 104.891456
    864   0.000000  59.216796
   1377   0.000000  66.272537
    703   0.000000 119.419932
   1166   0.000000  55.933508
    358   0.000000 112.282870
   1328   0.000000  70.190423
    845   0.000000 164.118430
   1390   0.000000  55.893810
    461   0.000000  77.449190
     97   0.000000 164.170902
   1149   0.000000 113.197923
   1056   0.000000 105.810362
     96   0.000000 133.760199
    862   0.000000 134.285317
   1250   0.000000  99.742446
    357   0.000000  60.125678
   1174   0.000000 138.381073
    312   0.000000 114.756979
   1058   0.000000  45.175495
     69   0.000000 139.010000
    717   0.000000 158.364897
    758   0.000000 158.718943
    237   0.000000  90.214299
   1429   0.000000  68.520566
    709   0.000000 169.816670
   1380   0.000000  59.728752
   1151   0.000000 145.600553
    104   0.000000  43.609590
    503   0.000000 118.317920
    265   0.000000  81.902046
    633   0.000000  89.494697
    514   0.000000  59.792558
    480   0.000000 118.235339
     94   0.000000 112.402098
   1197   0.000000  64.821395
     93   0.000000 174.470998
    681   0.000000 176.364302
    637   0.000000  52.741246
    166   0.000000 131.248036
    617   0.000000 150.048985
     99   0.000000  62.068900
   1181   0.000000 111.717647
    599   0.000000  54.472357
   1332   0.000000 147.872868
    500   0.000000 133.173313
   1395   0.000000  58.716474
    112   0.000000  49.635096
    675   0.000000 109.904901
   1176   0.000000  45.292877
   1162   0.000000  48.401439
    293   0.000000 101.487020
    531   0.000000  67.269400
   1036   0.000000 145.494420
    958   0.000000  55.824442
   1298   0.000000  64.978198
   1330   0.000000 155.779998
   1352   0.000000  55.133188
    923   0.000000  91.145712
    164   0.000000  65.175316
    450   0.000000  64.994398
    766   0.000000  71.538367
   1255   0.000000 162.652357
    502   0.000000 111.298027
    760   0.000000 157.633156
   1085   0.000000 112.162101
    935   0.000000 164.152816
    813   0.000000 124.448411
    212   0.000000 149.554873
    216   0.000000 120.593801
   1408   0.000000 118.008953
   1028   0.000000 160.056986
    119   0.000000  98.005328
    464   0.000000  93.646042
    999   0.000000 125.980333
    559   0.000000  49.998031
    272   0.000000 134.078914
    817   0.000000  62.705349
    894   0.000000 124.945207
    376   0.000000  50.583661
    957   0.000000  68.343795
   1071   0.000000  69.160361
   1310   0.000000 132.439066
    352   0.000000  68.279992
   1027   0.000000  85.699098
    279   0.000000  57.643687
    155   0.000000 146.568434
    728   0.000000  52.772347
    524   0.000000  66.068715
   1275   0.000000 150.099361
   1404   0.000000  60.588496
   1047   0.000000 155.471105
     83   0.000000 174.189870
   1060   0.000000 107.033580
    335   0.000000 146.306341
    161   0.000000 158.906027
   1282   0.000000 158.205331
    962   0.000000 124.168237
    440   0.000000 116.475797
    328   0.000000  43.947669
    359   0.000000 176.637234
   1270   0.000000 135.076860
   1072   0.000000  80.070735
    966   0.000000  49.238212
    375   0.000000 172.592837
    540   0.000000 150.438681
    946   0.000000 147.796101
   1262   0.000000  49.477639
    859   0.000000 134.095095
    141   0.000000 127.006797
     86   0.000000  59.183818
    284   0.000000  61.165792
    492   0.000000 162.913780
   1189   0.000000 171.696612
    832   0.000000 130.277646
    961   0.000000 158.757601
    489   0.000000 113.270105
    517   0.000000 118.530574
   1264   0.000000  99.713852
    525   0.000000 150.304900
    789   0.000000 129.529676
    144   0.000000 115.881353
    110   0.000000 103.769786
    547   0.000000 102.373721
   1278   0.000000 149.608497
     32   0.000000 162.200087
    169   0.000000 143.447054
    586   0.000000 119.129453
    560   0.000000 101.396136
    458   0.000000 142.031689
    876   0.000000  49.000165
    424   0.000000  57.815907
    674   0.000000  52.985039
    713   0.000000 111.475963
   1016   0.000000 170.734641
    948   0.000000 113.628230
    977   0.000000  73.256000
    215   0.000000  54.473753
    452   0.000000  69.593494
    275   0.000000 125.654971
     44   0.000000 142.144227
    750   0.000000 166.182760
    207   0.000000  97.542747
    430   0.000000 122.533872
    167   0.000000 150.480226
    756   0.000000 146.646457
    698   0.000000  81.303439
    608   0.000000  59.002517
   1232   0.000000  55.359349
     79   0.000000 124.165770
   1231   0.000000 116.054378
    655   0.000000  58.375236
   1079   0.000000 149.052466
    536   0.000000 148.311894
     78   0.000000  64.867820
   1315   0.000000 175.929279
    318   0.000000 164.282628
    220   0.000000 175.067554
    449   0.000000 125.939542
   1238   0.000000 150.228535
    269   0.000000 138.188437
   1068   0.000000  71.556620
    116   0.000000  99.656179
    535   0.000000 131.783037
   1031   0.000000  74.357887
    975   0.000000 145.920286
    686   0.000000 172.178582
    639   0.000000  57.728423
    880   0.000000  52.172530
   1208   0.000000 155.449331
    184   0.000000 170.842802
   1423   0.000000 162.792167
     57   0.000000  64.120013
   1425   0.000000 130.168015
    249   0.000000 134.771628
     12   0.000000 107.146616
    348   0.000000 138.536253
    807   0.000000 130.752900
    548   0.000000 153.771826
    317   0.000000  51.821658
   1179   0.000000 161.728654
    931   0.000000 124.075202
    333   0.000000 160.093747
   1217   0.000000 113.076403
    241   0.000000 131.421098
     76   0.000000 119.700473
    435   0.000000 106.100738
   1201   0.000000  65.207791
    125   0.000000  64.181924
    927   0.000000  71.771983
    204   0.000000 119.965677
    200   0.000000  58.170861
     77   0.000000 120.828178
   1117   0.000000 125.144730
      3   0.000000 139.243428
   1043   0.000000  49.660742
    840   0.000000  58.808807
    834   0.000000 168.037071
    945   0.000000 101.162055
    288   0.000000  61.980753
    875   0.000000 164.378465
    171   0.000000  66.072720
   1207   0.000000  95.976759
    591   0.000000  63.604055
    197   0.000000 170.860230
    349   0.000000  68.305605
   1030   0.000000  72.505293
   1399   0.000000 119.853033
   1112   0.000000  48.426365
    755   0.000000 146.357183
   1379   0.000000 132.557204
    800   0.000000 111.117216
   1389   0.000000 174.174005
    488   0.000000  49.643675
   1354   0.000000  81.493236
    885   0.000000 119.167484
   1213   0.000000 136.235727
   1398   0.000000 179.845405
    722   0.000000 154.122098
    482   0.000000  65.263110
    987   0.000000 108.797126
    490   0.000000 115.021641
    920   0.000000 114.534828
   1300   0.000000 167.777674
   1034   0.000000 162.948096
   1170   0.000000  43.077190
   1029   0.000000 146.863181
    533   0.000000  67.805926
    662   0.000000 125.430775
    656   0.000000 115.106604
    292   0.000000 160.490910
    462   0.000000  46.763541
   1296   0.000000 127.244128
    788   0.000000 169.018367
   1214   0.000000 165.227789
   1375   0.000000  63.114513
    455   0.000000 148.374817
    903   0.000000  52.622084
    981   0.000000  69.040676
   1095   0.000000  57.659404
   1152   0.000000 167.564707
      5   0.000000  49.313434
    460   0.000000  66.189269
    897   0.000000 137.296969
    696   0.000000 158.020196
   1001   0.000000 166.177730
   1063   0.000000  75.564780
     40   0.000000 103.222661
    564   0.000000  62.556831
    895   0.000000 176.164549
   1340   0.000000 104.589682
   1353   0.000000 104.757661
   1305   0.000000 150.237101
    651   0.000000 119.420083
   1003   0.000000  66.526143
   1309   0.000000  69.797536
    939   0.000000  53.772932
    707   0.000000 173.092251
     87   0.000000 122.666113
    301   0.000000  52.142890
    423   0.000000  64.288330
    483   0.000000  54.049585
    645   0.000000  83.031443
    226   0.000000  52.792763
    838   0.000000 120.494090
    980   0.000000  75.105482
    209   0.000000  62.711379
    309   0.000000  44.631171
     66   0.000000  80.438848
    693   0.000000 136.965182
    227   0.000000  45.183064
    911   0.000000 147.077601
    160   0.000000 154.469741
    150   0.000000 106.418049
   1331   0.000000 150.276972
    870   0.000000 153.135097
    396   0.000000 146.917936
   1022   0.000000  67.373071
    256   0.000000  86.863770
   1297   0.000000 116.616447
   1378   0.000000 126.013419
    409   0.000000 150.449517
   1206   0.000000  43.825373
    661   0.000000 124.421507
   1246   0.000000  62.909911
   1086   0.000000 169.821505
    996   0.000000  58.568611
    422   0.000000 129.749780
    476   0.000000  93.839381
    253   0.000000  88.916770
    950   0.000000 153.588503
   1381   0.000000 167.714044
    814   0.000000 178.863483
    849   0.000000 116.744173
   1082   0.000000  74.967275
    107   0.000000  54.395738
   1202   0.000000 173.438669
   1177   0.000000 148.468930
    274   0.000000  68.011284
    959   0.000000 105.062654
   1136   0.000000 122.775902
    995   0.000000  59.254858
     91   0.000000 174.537617
    749   0.000000 147.296997
     88   0.000000  70.897310
    186   0.000000 101.228424
   1198   0.000000 127.954152
    417   0.000000 120.870114
    609   0.000000  72.943578
    188   0.000000 138.165240
   1150   0.000000  49.754742
    916   0.000000 162.413655
   1223   0.000000 122.979527
    808   0.000000 130.126415
     18   0.000000 114.529455
    344   0.000000 134.795982
   1333   0.000000  75.693449
    762   0.000000 101.154843
   1057   0.000000 152.209075
   1135   0.000000 178.813888
    596   0.000000  69.741686
    428   0.000000 119.852597
    217   0.000000 147.733747
    983   0.000000  54.571471
    921   0.000000 151.867594
    793   0.000000 130.232621
    143   0.000000 175.351863
    147   0.000000  68.766784
    993   0.000000 116.898374
    149   0.000000 164.640410
    311   0.000000  55.886877
     14   0.000000  89.929993
   1279   0.000000  76.606749
   1357   0.000000  49.624473
   1098   0.000000  56.656729
    963   0.000000 173.406449
   1193   0.000000 118.867106
    823   0.000000  54.415071
    621   0.000000 145.022495
    810   0.000000  69.415824
    457   0.000000  64.582499
     41   0.000000 165.843207
    124   0.000000 149.854349
    629   0.000000 129.189796
   1295   0.000000 132.058814
   1040   0.000000  54.665201
    797   0.000000 118.129884
    416   0.000000 125.537619
   1319   0.000000 118.903122
    988   0.000000  75.049642
    848   0.000000  58.883859
    754   0.000000  99.836940
    381   0.000000  46.615429
     28   0.000000 112.242439
    917   0.000000 154.319460
    783   0.000000 113.962563
    676   0.000000 174.165175
    949   0.000000 159.777451
   1261   0.000000 149.191491
    429   0.000000  66.486747
    792   0.000000 118.206798
   1411   0.000000 123.873743
    378   0.000000 136.823502
   1400   0.000000  62.037290
    852   0.000000 145.729093
    468   0.000000  95.714538
    775   0.000000 158.660243
    337   0.000000 156.048849
    886   0.000000 178.263941
    943   0.000000 122.201105
    223   0.000000 132.139683
    968   0.000000 102.933159
   1173   0.000000 168.453880
    111   0.000000 164.476851
   1366   0.000000  55.190979
    505   0.000000 127.680184
    938   0.000000  62.204152
    904   0.000000 103.841427
     56   0.000000 151.485754
      4   0.000000  95.228895
    738   0.000000 158.706597
    132   0.000000  79.478131
   1384   0.000000 117.265391
    530   0.000000 143.626386
   1360   0.000000 103.957134
    270   0.000000  72.496450
   1012   0.000000 117.141077
   1103   0.000000 150.293433
    520   0.000000 116.810329
    329   0.000000  92.811125
    734   0.000000 147.835115
   1039   0.000000 128.335896
    641   0.000000  67.381295
   1005   0.000000 127.296127
    626   0.000000  85.434790
   1372   0.000000 170.872069
   1222   0.000000  60.258568
    650   0.000000  61.044847
    291   0.000000  53.589529
    574   0.000000  60.281136
     80   0.000000  64.981952
   1245   0.000000  70.529989
   1304   0.000000 147.121369
    221   0.000000  93.259995
      7   0.000000  96.849129
   1101   0.000000 150.387194
    908   0.000000  55.931889
   1006   0.000000  62.784519
     35   0.000000 102.268018
    407   0.000000  62.743813
   1180   0.000000  58.552600
    148   0.000000  47.456224
    782   0.000000  59.049975
    218   0.000000 102.550683
    515   0.000000 176.602887
    941   0.000000  44.065856
   1161   0.000000  46.834740
    363   0.000000  52.157193
    803   0.000000 125.017915
    795   0.000000  61.451957
   1350   0.000000 133.498275
    603   0.000000 177.965213
    825   0.000000  63.116117
   1210   0.000000 150.946838
    695   0.000000 126.139590
    901   0.000000 107.464793
    485   0.000000  59.220520
    394   0.000000 125.769480
    613   0.000000 130.383301
   1007   0.000000  60.381407
    454   0.000000 134.175993
   1370   0.000000  51.580380
    545   0.000000  52.375690
    395   0.000000 175.615507
    437   0.000000 117.613531
    313   0.000000 101.347307
    685   0.000000  66.362038
   1234   0.000000 121.402557
   1391   0.000000 177.887700
   1312   0.000000  65.167598
    146   0.000000  62.990971
   1368   0.000000 117.852918
    201   0.000000 105.315245
    332   0.000000  68.364464
   1090   0.000000 110.540742
    851   0.000000 156.410592
   1059   0.000000 100.902517
    777   0.000000 109.188519
    692   0.000000  61.124968
    243   0.000000  45.071755
   1424   0.000000  94.271601
    198   0.000000 138.741407
    130   0.000000 145.963727
    342   0.000000  66.490376
    232   0.000000 178.662263
    459   0.000000 143.638460
   1134   0.000000  63.572442
    234   0.000000  90.040722
   1070   0.000000 149.231096
    614   0.000000 165.041416
    816   0.000000 120.064142
    410   0.000000  77.991831
    913   0.000000 106.440633
   1073   0.000000  71.646627
      9   0.000000 173.220877
    791   0.000000  56.754841
    190   0.000000  42.783615
    764   0.000000  56.478314
   1076   0.000000 139.300907
   1120   0.000000 112.719815
    556   0.000000 156.838251
    593   0.000000  74.679065
    772   0.000000  66.579788
    884   0.000000 127.088768
    984   0.000000 129.275298
    761   0.000000  54.634600
    534   0.000000  77.778282
   1052   0.000000 151.564805
    264   0.000000  71.522590
    866   0.000000  72.404961
    306   0.000000  92.528662
   1122   0.000000 161.856807
    351   0.000000  56.927769
    918   0.000000  53.812946
    478   0.000000  58.300471
   1084   0.000000  88.236893
    978   0.000000 142.296676
     13   0.000000  44.014533
    287   0.000000  53.154839
    989   0.000000 167.126888
    683   0.000000 112.710225
    667   0.000000  95.540668
   1126   0.000000  67.117056
    853   0.000000 145.983924
    214   0.000000 110.675185
     61   0.000000 126.222983
    473   0.000000 142.597038
    477   0.000000 176.535810
    316   0.000000 118.822198
    776   0.000000  58.271312
    582   0.000000 177.198808
    239   0.000000  88.077249
    830   0.000000 119.103929
    115   0.000000 114.455768
   1426   0.000000 136.181408
    594   0.000000  57.820744
   1292   0.000000  67.080616
    236   0.000000  45.142544
   1428   0.000000  69.141590
     98   0.000000 103.640307
    552   0.000000 153.435342
    592   0.000000 138.283120
     46   0.000000 114.934054
    770   0.000000 172.410121
    379   0.000000  63.106978
   1251   0.000000 154.736223
     42   0.000000  52.771688
    518   0.000000 124.659097
   1322   0.000000 114.072525
    222   0.000000  48.076930
   1115   0.000000  58.027674
    725   0.000000 156.890547
   1293   0.000000  60.163512
    471   0.000000 105.182971
    826   0.000000  72.858999
    678   0.000000 121.180136
    643   0.000000 130.835597
    836   0.000000  54.007309
    470   0.000000 136.581690
    389   0.000000 164.502667
    874   0.000000 134.459941
    638   0.000000 110.469669
    399   0.000000  46.125359
   1077   0.000000 143.933267
    397   0.000000 100.792576
    557   0.000000 105.440147
    579   0.000000  63.671739
     95   0.000000  51.871504
    364   0.000000 116.511556
   1009   0.000000 132.505688
    726   0.000000 153.082006
   1099   0.000000  93.636705
    727   0.000000 102.799794
    539   0.000000 143.882180
    486   0.000000 169.071226
    400   0.000000  95.971387
    398   0.000000  50.946549
    757   0.000000  55.720387
    644   0.000000 144.669891
    822   0.000000  59.699321
    909   0.000000 152.200517
   1175   0.000000 152.978470
     21   0.000000  90.259042
    844   0.000000 106.258116
    181   0.000000 166.678699
    100   0.000000 122.599494
    630   0.000000  45.739691
   1314   0.000000 120.420969
     59   0.000000  87.365741
    724   0.000000 100.309659
    774   0.000000 116.051511
     31   0.000000  52.943485
    565   0.000000  51.532500
    481   0.000000  52.972229
    578   0.000000  64.018946
    657   0.000000 119.462621
     26   0.000000  46.840821
   1256   0.000000 142.353866
    319   0.000000 151.769703
    867   0.000000  51.962403
    295   0.000000  50.300817
    712   0.000000  57.180075
    280   0.000000 126.054930
    947   0.000000  63.585710
   1025   0.000000 132.569943
    972   0.000000  71.783039
     49   0.000000  50.150031
   1203   0.000000 128.475675
    882   0.000000  62.225586
   1241   0.000000  81.308827
    240   0.000000 132.351895
      2   0.000000  57.833182
    446   0.000000 167.601621
   1294   0.000000 176.302937
   1225   0.000000 115.617916
    173   0.000000  66.936317
   1048   0.000000 102.624833
   1094   0.000000  54.329803
     10   0.000000 162.923390
    532   0.000000  76.356986
   1024   0.000000 153.072170
     58   0.000000  62.102970
    942   0.000000  58.615396
    472   0.000000 170.446081
   1268   0.000000  74.823779
     52   0.000000 135.759686
   1405   0.000000 175.537761
    914   0.000000 101.691773
   1382   0.000000 128.124325
    561   0.000000 102.790690
    597   0.000000 157.404188
    322   0.000000  45.460430
   1272   0.000000 151.480809
    773   0.000000 166.968719
   1412   0.000000  63.946572
   1316   0.000000 126.683302
   1325   0.000000 112.895729
    934   0.000000 120.086960
    254   0.000000  43.519921
    228   0.000000  38.879688
   1096   0.000000 105.271203
    208   0.000000  50.398363
    802   0.000000 104.855670
    873   0.000000 173.367529
    463   0.000000  48.950996
   1421   0.000000 139.615953
    504   0.000000  70.708472
   1349   0.000000 176.068563
   1143   0.000000  51.915951
    902   0.000000  56.245450
    898   0.000000 170.080947
    888   0.000000  62.568574
    299   0.000000 155.834605
   1263   0.000000 104.471416
   1164   0.000000  53.967772
    985   0.000000 112.901233
   1132   0.000000 177.947681
    689   0.000000 121.459380
   1144   0.000000  61.281973
     71   0.000000  74.086958
    321   0.000000 170.643856
   1326   0.000000  57.387418
    568   0.000000 175.832582
    994   0.000000 117.823470
   1265   0.000000  44.720075
   1142   0.000000  58.410210
     38   0.000000  61.861423
    247   0.000000 176.563642
    965   0.000000 132.898604
    622   0.000000  60.752830
    213   0.000000 165.262063
   1035   0.000000 123.381209
   1216   0.000000 171.612886
      8   0.000000 140.863662
    569   0.000000 114.089330
   1373   0.000000 122.843264
    101   0.000000  60.530594
   1109   0.000000 105.176855
   1146   0.000000 162.483497
    172   0.000000  71.970233
    106   0.000000  91.492315
    405   0.000000 159.964601
    431   0.000000 177.037455
    308   0.000000  53.390898
    286   0.000000 115.135592
    522   0.000000  53.300124
    746   0.000000  53.984060
    763   0.000000 102.998557
    970   0.000000  53.694947
   1131   0.000000 119.537471
   1171   0.000000 109.901280
   1108   0.000000  56.750490
    567   0.000000 111.813636
    134   0.000000  58.030243
    896   0.000000  62.616154
   1311   0.000000  62.641530
    562   0.000000  51.392586
    385   0.000000 164.012598
    745   0.000000  47.460057
    955   0.000000  92.783267
   1155   0.000000 101.201524
    123   0.000000  70.200954
    549   0.000000  49.726407
    386   0.000000 146.141374
   1260   0.000000  91.486085
    893   0.000000  72.323122
   1229   0.000000 178.485941
    646   0.000000 151.875807
    443   0.000000  86.452949
    653   0.000000 179.492532
    855   0.000000  57.860315
    380   0.000000  73.716523
    940   0.000000  97.838788
    152   0.000000  52.487978
    340   0.000000  73.896979
    677   0.000000  56.919862
   1385   0.000000  57.701670
    255   0.000000 176.909224
    145   0.000000 131.757755
   1119   0.000000 109.227245
   1088   0.000000 147.517656
    767   0.000000  63.221602
    427   0.000000  70.936717
   1185   0.000000  52.829506
   1285   0.000000  64.558743
    493   0.000000  65.377966
    573   0.000000 174.580320
   1183   0.000000  50.011006
     50   0.000000 141.084162
    932   0.000000 133.643032
   1200   0.000000  63.267884
     67   0.000000 140.551152
   1346   0.000000 120.717024
   1015   0.000000 131.630366
    839   0.000000  61.685283
   1348   0.000000 105.784701
    811   0.000000  61.743062
    663   0.000000  62.096653
    305   0.000000  47.897491
   1376   0.000000  66.284667
    436   0.000000 173.660655
    373   0.000000 104.214931
    627   0.000000 120.340535
     54   0.000000 160.120301
     68   0.000000  66.464194
    997   0.000000 104.709004
    572   0.000000 121.610587
   1343   0.000000  59.065187
    794   0.000000  68.780665
    448   0.000000 127.403981
    702   0.000000  62.239857
    741   0.000000 102.284396
   1033   0.000000  68.716008
   1345   0.000000 167.436537
    860   0.000000  75.068520
   1313   0.000000  61.856755
    751   0.000000 101.444117
   1383   0.000000  60.622310
    382   0.000000  38.243118
    235   0.000000  91.173221
    922   0.000000  46.976138
    131   0.000000  66.485596
    796   0.000000  54.449045
     45   0.000000  51.210096
    806   0.000000  61.337076
    634   0.000000 154.224675
    604   0.000000  45.111087
    771   0.000000 134.759969
    366   0.000000  57.639923
    372   0.000000 118.961567
    571   0.000000 174.370467
    356   0.000000 125.207761
    516   0.000000 123.302763
   1392   0.000000 118.323979
   1014   0.000000 177.145922
    809   0.000000  60.710591
    687   0.000000  57.805303
   1002   0.000000 129.310662
   1032   0.000000  76.778413
    510   0.000000  56.971713
   1371   0.000000 116.133664
    669   0.000000 143.279196
    710   0.000000 112.636595
    954   0.000000  46.149221
   1267   0.000000  71.041797
    787   0.000000  60.749012
    735   0.000000  56.422201
    466   0.000000 151.946513
    581   0.000000 119.197137
    615   0.000000  79.567714
     90   0.000000 124.931788
   1237   0.000000  72.129633
    327   0.000000  51.084589
    967   0.000000 170.348807
    229   0.000000  84.062752
    623   0.000000 113.494077
    465   0.000000  89.818148
   1105   0.000000 152.956077
    731   0.000000 109.880489
   1242   0.000000 151.838817
    513   0.000000  58.738016
    974   0.000000 145.039038
    456   0.000000 151.779042
    925   0.000000  60.721882
    334   0.000000 126.009273
    883   0.000000 124.794161
   1318   0.000000 174.411433
   1064   0.000000  63.647504
   1062   0.000000  55.727021
    842   0.000000  50.152477
   1123   0.000000  60.090253
    343   0.000000 154.973371
    905   0.000000  51.219343
    219   0.000000 173.386564
    233   0.000000 178.786057
    956   0.000000  46.634046
   1133   0.000000 120.617552
   1026   0.000000 127.437721
   1334   0.000000  61.850160
    827   0.000000 128.079955
   1364   0.000000  64.225464
    708   0.000000 118.796363
    268   0.000000 153.424636
    354   0.000000 169.210640
   1221   0.000000  62.868025
   1356   0.000000 159.090322
   1205   0.000000 108.230878
   1365   0.000000 119.416443
    445   0.000000 151.447347
     51   0.000000  90.934131
   1169   0.000000 167.651155
     16   0.000000 137.099863
    271   0.000000  68.386927
    542   0.000000  79.905069
    402   0.000000  64.833900
    652   0.000000  54.061757
    258   0.000000 139.570856
    353   0.000000 117.053447
   1397   0.000000 122.625786
   1130   0.000000 122.848858
   1235   0.000000  60.695030
    140   0.000000  58.240014
    555   0.000000  54.047561
    498   0.000000  62.464841
   1116   0.000000 163.919386
    341   0.000000  79.045524
    262   0.000000  46.779174
    176   0.000000  99.742382
     62   0.000000 151.176291
    447   0.000000  66.458837
    390   0.000000 149.371973
    121   0.000000 153.404881
     11   0.000000 153.062077
   1406   0.000000  59.992372
    786   0.000000 112.263526
    421   0.000000 172.434313
   1274   0.000000  62.653615
    418   0.000000  51.564199
   1427   0.000000 155.298026
     23   0.000000 108.370683
    736   0.000000 105.746158
    857   0.000000 166.688109
    784   0.000000 115.804816
   1243   0.000000 137.641832
    971   0.000000  67.415647
    391   0.000000  99.525945
   1409   0.000000 178.109676
    298   0.000000 159.534224
    554   0.000000 153.163718
   1320   0.000000  61.515704
    467   0.000000 142.790377
   1290   0.000000  56.760707
    697   0.000000 157.143653
    869   0.000000 100.962567
    628   0.000000 173.081781
      6   0.000000  66.074261
    519   0.000000 177.959221
    195   0.000000  69.174093
     34   0.000000 144.856427
    891   0.000000  64.973847
    432   0.000000  48.915880
    551   0.000000 103.773968
    266   0.000000 150.288973
   1219   0.000000  53.603831
    871   0.000000 124.367364
    631   0.000000 160.035634
    127   0.000000  79.653395
    374   0.000000 177.931454
    238   0.000000  44.557328
   1308   0.000000  67.221168
   1091   0.000000 158.152542
    585   0.000000  55.525398
   1277   0.000000  81.598582
    406   0.000000 146.806670
    635   0.000000 101.483429
   1431   0.000000 135.560384
    307   0.000000  98.022069
    163   0.000000  85.304910
    310   0.000000  62.935321
    151   0.000000  99.112210
   1273   0.000000  64.035063
    550   0.000000 103.437311
    598   0.000000 143.593295
    303   0.000000 105.533788
   1276   0.000000  87.445746
   1147   0.000000 115.648757
    804   0.000000 165.566261
    453   0.000000  82.185547
    387   0.000000  84.858547
   1347   0.000000  55.351539
    304   0.000000 145.919560
   1083   0.000000  59.280763
    415   0.000000 169.000932
   1100   0.000000 111.213407
    193   0.000000  45.145160
   1215   0.000000  59.472572
   1227   0.000000  60.111502
    575   0.000000 124.300082
    618   0.000000  85.473702
   1074   0.000000  72.286641
    982   0.000000  54.225655
   1078   0.000000  74.085191
   1156   0.000000  54.366784
   1367   0.000000  53.019151
    135   0.000000 110.920624
   1359   0.000000 159.148113
    451   0.000000  60.945144
    600   0.000000 127.562430
    314   0.000000 145.294976
    835   0.000000 174.501399
    433   0.000000 137.423465
    742   0.000000 105.929516
    320   0.000000 102.906246
    263   0.000000  49.447833
    426   0.000000  65.461449
    355   0.000000 126.434997
    737   0.000000 148.324326
   1102   0.000000 161.186440
    668   0.000000 152.460530
    413   0.000000  61.249289
    444   0.000000 147.607509
    537   0.000000 145.584208
    499   0.000000  55.853079
   1422   0.000000  61.026425
    611   0.000000 122.015005
    820   0.000000 177.230509
   1401   0.000000  61.836453
   1388   0.000000 114.610284
    584   0.000000 113.501380
   1004   0.000000  64.511608
    126   0.000000 143.660055
   1209   0.000000  92.410354
    230   0.000000  91.297015
    670   0.000000  91.309119
    102   0.000000 104.030834
    494   0.000000 134.974395
   1418   0.000000 121.579525
     72   0.000000 175.317575
    491   0.000000 175.381930
    747   0.000000  92.662397
     73   0.000000  54.489397
   1080   0.000000 141.981541
   1045   0.000000 104.164546
   1212   0.000000 111.623959
   1018   0.000000 111.228556
    133   0.000000  59.081607
    566   0.000000 123.047820
    768   0.000000 138.118155
   1118   0.000000  52.629562
    529   0.000000 144.681626
   1247   0.000000 113.777691
    577   0.000000  61.119598
    361   0.000000 122.509368
    587   0.000000 166.191483
     53   0.000000  72.754559
   1317   0.000000 127.024353
   1167   0.000000 142.337838
   1321   0.000000  58.564214
    647   0.000000 132.298665
   1066   0.000000 132.807865
    910   0.000000 102.908027
    205   0.000000  69.567314
    595   0.000000 112.293101
     63   0.000000  70.737443
    189   0.000000  87.928775
    812   0.000000  58.321080
    350   0.000000  70.230648
    360   0.000000 174.666561
    831   0.000000  55.220956
   1233   0.000000  60.707527
    589   0.000000 127.369167
   1145   0.000000 101.670693
   1148   0.000000 149.115064
    699   0.000000  75.840214
   1038   0.000000 159.840379
    576   0.000000 125.138544
    154   0.000000  58.961825
   1386   0.000000 175.981865
    960   0.000000 133.826751
    523   0.000000  81.980260
    729   0.000000  50.027447
    906   0.000000  50.508744
     20   0.000000  47.670633
    242   0.000000 179.131069
   1154   0.000000 162.952665
    252   0.000000 138.364603
   1157   0.000000 149.602963
    607   0.000000  73.851609
   1020   0.000000  59.506085
    837   0.000000 112.816116
   1092   0.000000 159.601006
    719   0.000000 148.862756
    632   0.000000 147.223120
   1017   0.000000  60.004844
    438   0.000000  57.184858
    245   0.000000 133.219793
    879   0.000000  63.205770
   1252   0.000000  50.867780
   1128   0.000000  59.276416
   1226   0.000000 123.126592
    563   0.000000  51.398105
     25   0.000000  89.429230
    706   0.000000 129.727674
   1236   0.000000  68.919707
     30   0.000000 145.489543
     47   0.000000 165.084085
    694   0.000000  76.716757
    752   0.000000  45.202340
    605   0.000000 104.113604
    511   0.000000 115.528661
    178   0.000000 164.875993
    933   0.000000  66.314028
     60   0.000000 146.411276
    392   0.000000 133.437944
   1323   0.000000 171.459943
    915   0.000000 153.416771
   1160   0.000000  47.444372
   1053   0.000000 153.287121
    716   0.000000  58.055238
    543   0.000000  51.061621
   1186   0.000000 104.655006
   1055   0.000000 161.537384
    781   0.000000  53.213551
    165   0.000000 156.781731
    730   0.000000  53.458288
   1141   0.000000  59.203460
    704   0.000000 173.715820
    297   0.000000 102.443707
   1407   0.000000 118.117305
     70   0.000000 146.903042
    570   0.000000  60.490989
   1163   0.000000  95.236179
   1362   0.000000 109.523640
    691   0.000000 141.731379
    779   0.000000  49.471723
   1244   0.000000  67.111843
   1037   0.000000  86.169684
    843   0.000000 107.757961
   1165   0.000000  97.044962
    325   0.000000 143.895714
    261   0.000000  96.227007
    964   0.000000  65.482957
    664   0.000000  63.334122
   1049   0.000000  50.662288
   1363   0.000000  54.332661
   1051   0.000000  95.837783
    991   0.000000 176.153232
   1019   0.000000 110.729797
    790   0.000000 173.012538
     84   0.000000 170.966410
   1393   0.000000 123.395826
    969   0.000000 121.110594
   1307   0.000000 129.862698
    484   0.000000 103.693260
    412   0.000000  59.620825
    137   0.000000 173.911596
   1140   0.000000 117.613671
    153   0.000000 117.184187
   1301   0.000000  51.638249
   1342   0.000000  61.651836
    998   0.000000  61.468726
     92   0.000000  51.768804
    801   0.000000  63.680839
    877   0.000000 101.172695
    700   0.000000  67.487817
   1061   0.000000  51.306558
    323   0.000000  89.408099
    122   0.000000 145.888053
    338   0.000000 131.541789
   1139   0.000000 116.606546
    671   0.000000 144.294158
    362   0.000000  58.155005
   1000   0.000000 171.235148
    538   0.000000  63.977111
    289   0.000000  58.047203
    371   0.000000  53.631270
    369   0.000000 161.854853
    108   0.000000  50.021083
    439   0.000000  56.047124
   1192   0.000000 178.000137
    180   0.000000  55.156061
    246   0.000000  87.209351
    769   0.000000 121.492914
    778   0.000000 100.388931
   1339   0.000000  79.341755
    900   0.000000 160.086877
    479   0.000000 123.563581
   1341   0.000000  54.156520
    890   0.000000 108.117071
   1008   0.000000  56.759670
    658   0.000000 177.203257
    878   0.000000 115.378300
    553   0.000000 155.166554
   1067   0.000000 139.212283
   1138   0.000000  58.196336
    257   0.000000 136.311603
    705   0.000000  60.455656
    829   0.000000 177.912736
    302   0.000000 150.164959
    846   0.000000  97.526734
    368   0.000000  61.321645
   1335   0.000000 134.029580
   1419   0.000000  72.626311
   1291   0.000000 108.398956
    541   0.000000  70.533612
   1224   0.000000 176.312946
    425   0.000000 123.277357
    191   0.000000  50.236465
   1044   0.000000 103.626378
    401   0.000000  49.846028
   1182   0.000000 103.176054
   1046   0.000000 148.801874
   1338   0.000000 159.941221
   1284   0.000000  73.001748
     37   0.000000 114.633112
    168   0.000000  71.476822
    973   0.000000  70.814804
    892   0.000000 127.590001
     48   0.000000 103.981784
    887   0.000000  70.146870
    267   0.000000 144.019040
    680   0.000000  59.468357
    642   0.000000 160.320040
    192   0.000000  95.381625
   1107   0.000000 155.149888
    199   0.000000 134.719077
    929   0.000000 138.086010
    408   0.000000 135.201500
   1195   0.000000 130.174362
    276   0.000000  58.043646
    744   0.000000  52.969077
   1415   0.000000  57.632953
    506   0.000000 173.762868
    179   0.000000 115.686740
   1129   0.000000  61.341135
   1220   0.000000  58.536484
    273   0.000000  65.691987
   1021   0.000000  51.223712
    117   0.000000 108.589791
   1172   0.000000  88.370066
    926   0.000000  44.169574
   1111   0.000000  49.973033
      1   0.000000 123.907443
    881   0.000000  56.941898
    434   0.000000 166.529411
    739   0.000000  49.323957
   1259   0.000000 146.479863
   1124   0.000000 131.026137
   1324   0.000000  55.508310
    821   0.000000 122.815438
   1125   0.000000 138.052940
     55   0.000000  73.656716
     43   0.000000 167.705742
   1110   0.000000  98.399398
    185   0.000000  50.991959
    684   0.000000 124.167341
   1087   0.000000 142.566695
    339   0.000000  57.644810
    508   0.000000 114.001896
    128   0.000000 134.382878
    990   0.000000 134.304500
    992   0.000000  58.329762
   1228   0.000000 120.819029
   1283   0.000000  64.234178
    170   0.000000 138.042953
    654   0.000000 116.158410
    393   0.000000  79.644120
    872   0.000000  71.254171
    601   0.000000  99.583444
   1081   0.000000  67.014267
    815   0.000000 118.020401
    951   0.000000 177.213939
   1158   0.000000  95.845811
    120   0.000000  60.707066
   1369   0.000000 175.862415
   1430   0.000000  67.039818
   1204   0.000000 123.293447
    714   0.000000  54.295888
     33   0.000000 155.211503
    679   0.000000  64.260274
    260   0.000000  92.791682
    819   0.000000 179.763463
    612   0.000000 152.511293
    370   0.000000 124.428623
   1417   0.000000  98.804522
    182   0.000000 143.084836
   1168   0.000000 114.486108
    606   0.000000 132.854126
   1093   0.000000 101.941602
    521   0.000000  63.510205
    588   0.000000 169.026778
    785   0.000000 177.256773
   1240   0.000000 141.049340
    715   0.000000 107.042593
    377   0.000000 124.300184
    383   0.000000  95.194826
   1191   0.000000 113.178742
    475   0.000000 159.102491
    315   0.000000 165.841568
    138   0.000000 117.111850
    723   0.000000 104.094651
    865   0.000000  59.946984
    296   0.000000 111.636733
    495   0.000000 131.708254
    740   0.000000 155.253474
    863   0.000000 119.163780
    474   0.000000  40.867152
   1137   0.000000 175.810007
    183   0.000000  97.939676
    616   0.000000  64.575283
    930   0.000000 168.141057
   1416   0.000000 171.430833
    526   0.000000 133.338114
   1104   0.000000  54.556679
    114   0.000000  53.748702
   1075   0.000000 145.731818
    194   0.000000  65.544984
   1069   0.000000 151.627356
   1387   0.000000  67.502016
    833   0.000000 109.228265
    721   0.000000  51.322304
   1127   0.000000  70.935884
   1089   0.000000  52.881339
    202   0.000000 155.713608
   1394   0.000000  59.563721
    861   0.000000 165.767700
   1329   0.000000 132.040582
    720   0.000000  48.987355
     27   0.000000  59.298954
    109   0.000000 147.640424
    649   0.000000  68.844364
    824   0.000000 117.531188
    282   0.000000 179.209768
   1288   0.000000 173.377154
   1190   0.000000  51.825501
    780   0.000000  50.917207
   1286   0.000000 137.560491
    799   0.000000 179.466960
   1106   0.000000 104.529712
    420   0.000000 174.841556
   1097   0.000000  47.611799
    346   0.000000  75.927847
    211   0.000000  57.882422
     89   0.000000  62.862889
    136   0.000000 117.321621
    283   0.000000 176.301383
   1287   0.000000 119.542230
     39   0.000000  53.072630
    544   0.000000 100.788027
   1302   0.000000  83.015933
   1289   0.000000  59.378718
    690   0.000000  65.014622
   1114   0.000000 103.829133
   1249   0.000000 160.543702
    290   0.000000 108.348020
    365   0.000000  64.354363
    487   0.000000 121.332345
    336   0.000000  82.151870
    660   0.000000  61.087385
    527   0.000000 148.048974
   1042   0.000000  52.964090
    231   0.000000  87.489042
    159   0.000000 142.871611
    162   0.000000  46.624232
    347   0.000000 146.158495
   1355   0.000000 145.718699
   1194   0.000000 165.004242
    419   0.000000 109.380106
     82   0.000000 115.006052
    701   0.000000 127.943473
    224   0.000000  91.672452
    624   0.000000 171.222500
     81   0.000000  55.960358
    331   0.000000  77.941877
    590   0.000000  52.690102
    986   0.000000 171.469844
    899   0.000000 118.861604
    673   0.000000  94.525707
    501   0.000000 169.854975
   1358   0.000000 136.626423
    711   0.000000  58.340707
    278   0.000000 111.198485
    818   0.000000 117.120421
    682   0.000000 125.830395
   1420   0.000000  66.989642
   1188   0.000000 125.170631
    528   0.000000  68.324640
   1248   0.000000  50.264807
    103   0.000000 154.051917
   1327   0.000000  80.086549
    928   0.000000  61.871049
     85   0.000000 129.849772
    847   0.000000 155.132218
   1153   0.000000  97.199114
    580   0.000000  49.829641
   1303   0.000000  77.323832
    250   0.000000 178.291548
    175   0.000000 122.092379
    759   0.000000 112.198700
    469   0.000000  46.882500
    294   0.000000 146.118192
     15   0.000000  45.915461
   1254   0.000000  97.633791
   1023   0.000000  60.064650
   1041   0.000000  73.670695
   1269   0.000000 137.477394
    732   0.000000 159.204446
     17   0.000000  55.230500
    244   0.000000  89.699872
   1218   0.000000 112.140315
    187   0.000000 146.373584
    841   0.000000  47.374257
   1054   0.000000  54.503804
   1239   0.000000 139.241476
   1121   0.000000 176.344301
    210   0.000000 117.185132
    206   0.000000  47.144384
   1336   0.000000  72.179420
    583   0.000000 102.519744
    889   0.000000 170.685646
     36   0.000000  42.588409
    953   0.000000  90.002794
    620   0.000000  99.282804
    411   0.000000  72.457686
    858   0.000000  74.148111
     22   0.000000 167.669637
    748   0.000000 109.704446
    442   0.000000  81.148672
   1113   0.000000  51.199571
    936   0.000000 160.042940
   1230   0.000000 176.761906
   1050   0.000000 157.128637
   1281   0.000000 128.792921
    665   0.000000  48.753489
   1184   0.000000  53.165047
    157   0.000000  58.222361
   1065   0.000000 147.121400
    441   0.000000  60.428673
   1011   0.000000 167.988227
    619   0.000000  59.587705
   1253   0.000000 113.174718
   1410   0.000000  58.016581
    113   0.000000 162.338493
    324   0.000000 138.271555
    105   0.000000 152.199381
    388   0.000000  48.579397
    648   0.000000  63.454301
    907   0.000000  98.387571
    979   0.000000 144.146158
    610   0.000000  57.439723
    203   0.000000 167.110061
   1403   0.000000 117.521180
    636   0.000000  43.755006
     75   0.000000  60.516655
   1013   0.000000  72.124282
    156   0.000000  99.944202
    666   0.000000  42.555629
   1178   0.000000  95.303883
   1271   0.000000 145.865576
    919   0.000000 158.704402

Angles # ['angleID', 'angleType', 'atom1', 'atom2', 'atom3']

       512       512        44        34        45
        74        74         5         6        18
       507       507        35        34        43
       497       497        34        33        43
        64        64         4         5        95
       384       384        16        26        36
       558       558        37        38        39
       174       174         1        13        12
      1344      1344        73        94        92
      1402      1402        85        98        86
       251       251         6        17        18
       196       196         2        14        23
      1266      1266        98        87        99
       403       403        17        27        26
       868       868        51        60        61
       743       743        52        51        60
       259       259        16        17        26
       225       225        14        15        17
       367       367        14        25        16
       640       640        34        44        43
       805       805        46        55        54
       281       281        10        19        29
       509       509        35        34        45
        65        65         4         5        96
      1414      1414         7        99        88
       659       659        36        45        44
       733       733        40        51        59
      1159      1159        88        80        90
        29        29        13         2        91
      1010      1010        53        70        71
      1374      1374         6        96        95
       625       625        33        43        34
       753       753        42        52        53
      1196      1196        73        82        94
       850       850        57        58        65
       129       129        10         9       100
      1258      1258        79        87        88
       118       118        18         8        28
      1361      1361         5        95        83
       414       414         8        28        27
       912       912        55        63        56
      1280      1280         1        89       100
        19        19         1         2        15
       854       854        65        58        77
       944       944        56        65        64
       798       798        44        55        54
      1413      1413         7        99        87
      1199      1199        92        82        94
       952       952        58        65        75
      1396      1396        96        97        98
       828       828        46        57        56
      1306      1306         2        91        90
       345       345        14        23        22
       285       285        20        19        39
      1337      1337         3        94        73
       546       546        26        38        39
       602       602        30        41        51
       139       139         8        10        11
       248       248         5        17        27
      1299      1299        89        90        91
       672       672        37        46        56
        24        24         3         2        15
       765       765        60        52        61
       688       688        48        47        57
      1211      1211        75        84        76
       326       326        22        21        31
       496       496        32        33        43
       404       404        17        27        28
       330       330        31        21        32
       976       976        60        67        66
       856       856        50        59        51
       277       277         8        19        29
       142       142         9        10        11
       937       937        65        64        74
       718       718        40        50        59
      1257      1257        79        87        86
      1351      1351        92        94        93
       177       177         1        13        22
       158       158        12        11        89
      1187      1187        71        82        81
       300       300        12        20        19
       924       924        64        63        72
       864       864        60        59        67
      1377      1377        84        96        95
       703       703        38        49        48
      1166      1166        69        81        80
       358       358        23        24        34
      1328      1328         2        93        91
       845       845        48        58        77
      1390      1390         7        97        98
       461       461        41        31        42
        97        97        10         7        98
      1149      1149        79        80        81
      1056      1056        72        73        94
        96        96        10         7        97
       862       862        51        59        67
      1250      1250        77        87        98
       357       357        23        24        33
      1174      1174        70        81        92
       312       312        12        21        22
      1058      1058        74        73        83
        69        69        17         5        95
       717       717        40        50        58
       758       758        43        52        60
       237       237         4        17         6
      1429      1429        80       100        88
       709       709        40        49        47
      1380      1380        85        96        97
      1151      1151        79        80        89
       104       104         6         8        18
       503       503        33        34        35
       265       265         6        18        17
       633       633        34        43        54
       514       514        24        35        34
       480       480        42        32        43
        94        94         9         7        98
      1197      1197        81        82        92
        93        93         9         7        97
       681       681        37        47        48
       637       637        52        43        53
       166       166         1        12        21
       617       617        41        42        52
        99        99        97         7        98
      1181      1181        80        81        92
       599       599        30        41        31
      1332      1332         3        93        92
       500       500        24        34        43
      1395      1395        85        97        98
       112       112         7         8        97
       675       675        45        46        56
      1176      1176        71        81        82
      1162      1162        89        80       100
       293       293        10        20        29
       531       531        37        36        46
      1036      1036        63        72        71
       958       958        50        66        59
      1298      1298        81        90        92
      1330      1330         2        93        94
      1352      1352         3        95         4
       923       923        62        63        73
       164       164         1        12        13
       450       450        29        30        41
       766       766        43        53        52
      1255      1255        78        87        98
       502       502        24        34        45
       760       760        51        52        53
      1085      1085        65        76        84
       935       935        63        64        75
       813       813        46        56        63
       212       212         2        15        16
       216       216         3        15        14
      1408      1408        86        98        99
      1028      1028        70        71        82
       119       119        18         8        97
       464       464        21        32        33
       999       999        68        69        80
       559       559        37        38        47
       272       272        17        18        28
       817       817        55        56        63
       894       894        53        62        71
       376       376        16        25        26
       957       957        50        66        58
      1071      1071        75        74        84
      1310      1310        90        91        93
       352       352        14        24        25
      1027      1027        70        71        81
       279       279        10        19        20
       155       155        10        11        89
       728       728        58        50        66
       524       524        26        36        37
      1275      1275        87        88       100
      1404      1404        85        98        97
      1047      1047        63        73        94
        83        83        17         6        97
      1060      1060        82        73        83
       335       335        21        22        23
       161       161        20        11       100
      1282      1282        11        89        90
       962       962        58        66        59
       440       440        39        29        41
       328       328        30        21        31
       359       359        23        24        35
      1270      1270        79        88       100
      1072      1072        83        74        84
       966       966        59        66        67
       375       375        16        25        24
       540       540        38        37        46
       946       946        56        65        76
      1262      1262        86        87        98
       859       859        50        59        67
       141       141         8        10        20
        86        86        96         6        97
       284       284        20        19        29
       492       492        24        33        32
      1189      1189        71        82        94
       832       832        47        57        56
       961       961        50        66        78
       489       489        23        33        32
       517       517        25        35        34
      1264      1264        88        87        98
       525       525        26        36        45
       789       789        44        54        63
       144       144         9        10        20
       110       110         7         8        19
       547       547        26        38        47
      1278      1278         1        89        80
        32        32        14         2        91
       169       169        11        12        21
       586       586        39        40        50
       560       560        37        38        49
       458       458        30        31        42
       876       876        59        60        67
       424       424        27        28        38
       674       674        45        46        55
       713       713        47        49        50
      1016      1016        62        70        69
       948       948        57        65        64
       977       977        60        67        68
       215       215         3        15         4
       452       452        21        31        30
       275       275         8        19        20
        44        44         4         3        94
       750       750        32        52        61
       207       207        23        14        25
       430       430        19        29        40
       167       167        11        12        13
       756       756        43        52        51
       698       698        50        48        58
       608       608        42        41        51
      1232      1232        86        85        98
        79        79         8         6        96
      1231      1231        86        85        97
       655       655        35        45        36
      1079      1079        65        75        84
       536       536        26        37        47
        78        78         8         6        18
      1315      1315        81        92        93
       318       318        13        21        30
       220       220         4        15        14
       449       449        29        30        31
      1238      1238        76        86        87
       269       269         8        18        27
      1068      1068        73        74        83
       116       116        10         8        97
       535       535        26        37        46
      1031      1031        81        71        82
       975       975        59        67        78
       686       686        38        47        57
       639       639        53        43        54
       880       880        67        60        68
      1208      1208        74        84        85
       184       184        12        13        14
      1423      1423         9       100        80
        57        57         5         4        17
      1425      1425         9       100        89
       249       249         6        17        15
        12        12        13         1        91
       348       348        22        23        24
       807       807        46        55        63
       548       548        26        38        49
       317       317        13        21        22
      1179      1179        80        81        82
       931       931        56        64        75
       333       333        13        22        32
      1217      1217        76        84        96
       241       241         4        17        26
        76        76         5         6        97
       435       435        20        29        41
      1201      1201        73        83        94
       125       125         7         9        99
       927       927        56        64        63
       204       204        15        14        24
       200       200        13        14        23
        77        77         8         6        17
      1117      1117        66        78        87
         3         3         2         1        89
      1043      1043        63        73        72
       840       840        58        57        65
       834       834        47        57        65
       945       945        56        65        75
       288       288        29        19        39
       875       875        59        60        61
       171       171        13        12        21
      1207      1207        74        84        76
       591       591        49        40        50
       197       197         2        14        24
       349       349        22        23        33
      1030      1030        72        71        82
      1399      1399         7        98        87
      1112      1112        86        77        87
       755       755        42        52        61
      1379      1379        85        96        95
       800       800        44        55        63
      1389      1389         7        97        96
       488       488        23        33        24
      1354      1354         3        95        83
       885       885        53        61        60
      1213      1213        75        84        95
      1398      1398         7        98        86
       722       722        48        50        59
       482       482        43        32        52
       987       987        61        68        67
       490       490        23        33        34
       920       920        56        63        73
      1300      1300        89        90        92
      1034      1034        62        72        73
      1170      1170        70        81        71
      1029      1029        72        71        81
       533       533        26        37        36
       662       662        44        45        46
       656       656        35        45        44
       292       292        10        20        21
       462       462        21        32        22
      1296      1296        81        90        89
       788       788        44        54        62
      1214      1214        75        84        96
      1375      1375         6        96        97
       455       455        21        31        42
       903       903        70        62        71
       981       981        68        67        78
      1095      1095        84        76        85
      1152      1152        79        80        90
         5         5         2         1        91
       460       460        32        31        42
       897       897        54        62        70
       696       696        49        48        58
      1001      1001        70        69        79
      1063      1063        64        74        73
        40        40         2         3        94
       564       564        19        39        28
       895       895        53        62        72
      1340      1340         3        94        92
      1353      1353         3        95         5
      1305      1305         1        91        93
       651       651        34        45        36
      1003      1003        70        69        81
      1309      1309        90        91        92
       939       939        73        64        74
       707       707        39        49        48
        87        87         8         7         9
       301       301        12        20        21
       423       423        19        28        39
       483       483        22        33        23
       645       645        43        44        54
       226       226        14        15        25
       838       838        56        57        58
       980       980        66        67        78
       209       209         2        15         3
       309       309        29        20        30
        66        66         6         5        17
       693       693        47        48        58
       227       227        16        15        17
       911       911        54        63        73
       160       160        20        11        89
       150       150         9        11        20
      1331      1331         3        93        91
       870       870        51        60        68
       396       396        27        26        36
      1022      1022        62        71        70
       256       256        15        17        26
      1297      1297        81        90        91
      1378      1378        84        96        97
       409       409        26        27        28
      1206      1206        74        84        75
       661       661        36        45        55
      1246      1246        77        87        78
      1086      1086        65        76        85
       996       996        78        68        79
       422       422        19        28        38
       476       476        31        32        52
       253       253         6        17        27
       950       950        57        65        76
      1381      1381        95        96        97
       814       814        46        56        64
       849       849        50        58        77
      1082      1082        76        75        84
       107       107         6         8        97
      1202      1202        73        83        95
      1177      1177        71        81        90
       274       274         8        19        10
       959       959        50        66        67
      1136      1136        69        79        88
       995       995        69        68        79
        91        91         8         7        99
       749       749        32        52        60
        88        88         8         7        10
       186       186        12        13        22
      1198      1198        81        82        94
       417       417        18        28        19
       609       609        31        42        32
       188       188        14        13        21
      1150      1150        79        80        88
       916       916        55        63        73
      1223      1223        76        85        96
       808       808        54        55        56
        18        18         1         2        14
       344       344        13        23        33
      1333      1333         3        93        94
       762       762        51        52        61
      1057      1057        74        73        82
      1135      1135        69        79        87
       596       596        29        41        40
       428       428        19        29        30
       217       217         3        15        16
       983       983        60        68        67
       921       921        62        63        64
       793       793        55        54        62
       143       143         9        10        19
       147       147        19        10        20
       993       993        67        68        79
       149       149         9        11        12
       311       311        12        21        20
        14        14        89         1        91
      1279      1279         1        89        90
      1357      1357         4        95         5
      1098      1098        58        77        66
       963       963        58        66        67
      1193      1193        72        82        94
       823       823        63        56        64
       621       621        32        43        44
       810       810        56        55        63
       457       457        30        31        41
        41        41         2         3        95
       124       124         7         9        11
       629       629        33        43        54
      1295      1295        80        90        92
      1040      1040        71        72        82
       797       797        44        55        46
       416       416         8        28        39
      1319      1319        82        92        93
       988       988        61        68        69
       848       848        50        58        66
       754       754        42        52        60
       381       381        16        26        17
        28        28        13         2        15
       917       917        56        63        62
       783       783        43        54        55
       676       676        45        46        57
       949       949        57        65        75
      1261      1261        86        87        88
       429       429        19        29        39
       792       792        53        54        63
      1411      1411        97        98        99
       378       378        24        25        26
      1400      1400         7        98        97
       852       852        57        58        77
       468       468        22        32        31
       775       775        54        53        61
       337       337        21        22        33
       886       886        53        61        68
       943       943        56        65        58
       223       223         4        15        25
       968       968        59        66        78
      1173      1173        70        81        90
       111       111         7         8        28
      1366      1366        84        95        96
       505       505        33        34        44
       938       938        65        64        75
       904       904        70        62        72
        56        56         5         4        15
         4         4         2         1        90
       738       738        41        51        60
       132       132        99         9       100
      1384      1384         6        97        85
       530       530        37        36        45
      1360      1360         4        95        96
       270       270         8        18        28
      1012      1012        61        70        62
      1103      1103        66        77        76
       520       520        34        35        36
       329       329        30        21        32
       734       734        40        51        60
      1039      1039        71        72        73
       641       641        34        44        45
      1005      1005        79        69        81
       626       626        33        43        44
      1372      1372         6        96        84
      1222      1222        76        85        86
       650       650        34        45        35
       291       291        10        20        19
       574       574        29        39        40
        80        80         8         6        97
      1245      1245        87        86        98
      1304      1304         1        91        92
       221       221         4        15        16
         7         7        12         1        89
      1101      1101        58        77        86
       908       908        54        63        62
      1006      1006        80        69        81
        35        35        15         2        93
       407       407        18        27        28
      1180      1180        80        81        90
       148       148         9        11        10
       782       782        43        54        53
       218       218         3        15        17
       515       515        24        35        36
       941       941        74        64        75
      1161      1161        89        80        90
       363       363        33        24        34
       803       803        45        55        56
       795       795        62        54        63
      1350      1350        83        94        93
       603       603        31        41        40
       825       825        64        56        65
      1210      1210        74        84        96
       695       695        49        48        57
       901       901        63        62        71
       485       485        22        33        32
       394       394        25        26        37
       613       613        32        42        41
      1007      1007        53        70        61
       454       454        21        31        41
      1370      1370         5        96        95
       545       545        26        38        37
       395       395        25        26        38
       437       437        30        29        40
       313       313        12        21        30
       685       685        38        47        49
      1234      1234        96        85        98
      1391      1391         8        97        85
      1312      1312        81        92        82
       146       146        11        10        20
      1368      1368         5        96        84
       201       201        13        14        24
       332       332        13        22        23
      1090      1090        75        76        85
       851       851        57        58        66
      1059      1059        74        73        94
       777       777        54        53        70
       692       692        47        48        57
       243       243         5        17         6
      1424      1424         9       100        88
       198       198         2        14        25
       130       130        11         9        99
       342       342        13        23        22
       232       232        15        16        26
       459       459        32        31        41
      1134      1134        69        79        80
       234       234        17        16        26
      1070      1070        75        74        83
       614       614        32        42        51
       816       816        55        56        57
       410       410        26        27        38
       913       913        55        63        62
      1073      1073        64        75        65
         9         9        12         1        91
       791       791        53        54        62
       190       190        14        13        23
       764       764        53        52        61
      1076      1076        64        75        84
      1120      1120        67        78        79
       556       556        28        38        47
       593       593        50        40        51
       772       772        52        53        61
       884       884        52        61        70
       984       984        60        68        69
       761       761        51        52        60
       534       534        26        37        38
      1052      1052        64        73        94
       264       264         6        18         8
       866       866        51        60        52
       306       306        19        20        30
      1122      1122        68        78        77
       351       351        14        24        23
       918       918        56        63        64
       478       478        33        32        43
      1084      1084        65        76        77
       978       978        60        67        78
        13        13        89         1        90
       287       287        28        19        39
       989       989        61        68        78
       683       683        37        47        57
       667       667        36        46        55
      1126      1126        77        78        87
       853       853        65        58        66
       214       214         2        15        25
        61        61        17         4        95
       473       473        31        32        33
       477       477        33        32        42
       316       316        13        21        20
       776       776        54        53        62
       582       582        29        40        50
       239       239         4        17        16
       830       830        46        57        65
       115       115        10         8        28
      1426      1426        11       100        80
       594       594        29        41        30
      1292      1292        80        90        81
       236       236         4        17         5
      1428      1428        11       100        89
        98        98        10         7        99
       552       552        27        38        47
       592       592        49        40        51
        46        46        15         3        93
       770       770        43        53        70
       379       379        24        25        35
      1251      1251        77        87        99
        42        42         4         3        15
       518       518        25        35        36
      1322      1322        90        92        93
       222       222         4        15        17
      1115      1115        66        78        77
       725       725        49        50        59
      1293      1293        80        90        89
       471       471        22        32        43
       826       826        46        57        47
       678       678        55        46        57
       643       643        34        44        55
       836       836        48        57        58
       470       470        22        32        42
       389       389        17        26        36
       874       874        52        60        68
       638       638        52        43        54
       399       399        36        26        37
      1077      1077        65        75        74
       397       397        27        26        37
       557       557        28        38        49
       579       579        29        40        39
        95        95         9         7        99
       364       364        33        24        35
      1009      1009        53        70        69
       726       726        49        50        66
      1099      1099        58        77        76
       727       727        58        50        59
       539       539        36        37        47
       486       486        22        33        34
       400       400        36        26        38
       398       398        27        26        38
       757       757        43        52        53
       644       644        43        44        45
       822       822        57        56        65
       909       909        54        63        64
      1175      1175        71        81        80
        21        21         1         2        93
       844       844        48        58        66
       181       181         2        13        21
       100       100        97         7        99
       630       630        34        43        44
      1314      1314        81        92        91
        59        59        15         4        17
       724       724        49        50        58
       774       774        52        53        70
        31        31        14         2        15
       565       565        19        39        29
       481       481        42        32        52
       578       578        40        39        49
       657       657        35        45        46
        26        26         3         2        93
      1256      1256        78        87        99
       319       319        13        21        31
       867       867        51        60        59
       295       295        11        20        12
       712       712        47        49        48
       280       280        10        19        28
       947       947        57        65        58
      1025      1025        62        71        82
       972       972        59        67        60
        49        49        93         3        94
      1203      1203        74        83        94
       882       882        52        61        60
      1241      1241        77        86        87
       240       240         4        17        18
         2         2         2         1        13
       446       446        21        30        29
      1294      1294        80        90        91
      1225      1225        76        85        98
       173       173         1        13         2
      1048      1048        64        73        72
      1094      1094        77        76        86
        10        10        13         1        89
       532       532        45        36        46
      1024      1024        62        71        81
        58        58         5         4        95
       942       942        56        65        57
       472       472        22        32        52
      1268      1268        79        88        87
        52        52         3         4         5
      1405      1405        85        98        99
       914       914        55        63        64
      1382      1382         6        97         7
       561       561        39        38        47
       597       597        29        41        42
       322       322        20        21        30
      1272      1272        80        88        99
       773       773        52        53        62
      1412      1412         7        99         9
      1316      1316        81        92        94
      1325      1325        91        92        94
       934       934        63        64        74
       254       254        15        17        16
       228       228        16        15        25
      1096      1096        84        76        86
       208       208        24        14        25
       802       802        45        55        54
       873       873        52        60        67
       463       463        21        32        31
      1421      1421        88        99        98
       504       504        33        34        43
      1349      1349        83        94        92
      1143      1143        69        80        79
       902       902        63        62        72
       898       898        54        62        71
       888       888        60        61        68
       299       299        11        20        30
      1263      1263        86        87        99
      1164      1164        69        81        70
       985       985        60        68        78
      1132      1132        68        79        88
       689       689        49        47        57
      1144      1144        69        80        81
        71        71        95         5        96
       321       321        20        21        22
      1326      1326        93        92        94
       568       568        19        39        49
       994       994        69        68        78
      1265      1265        88        87        99
      1142      1142        87        79        88
        38        38         2         3        15
       247       247         5        17        26
       965       965        58        66        78
       622       622        32        43        52
       213       213         2        15        17
      1035      1035        62        72        82
      1216      1216        76        84        95
         8         8        12         1        90
       569       569        28        39        29
      1373      1373         6        96        85
       101       101        98         7        99
      1109      1109        76        77        87
      1146      1146        69        80        89
       172       172        20        12        21
       106       106         6         8        28
       405       405        17        27        38
       431       431        19        29        41
       308       308        21        20        30
       286       286        28        19        29
       522       522        36        35        45
       746       746        32        52        43
       763       763        53        52        60
       970       970        67        66        78
      1131      1131        68        79        87
      1171      1171        70        81        80
      1108      1108        76        77        86
       567       567        19        39        40
       134       134         7        10         9
       896       896        54        62        63
      1311      1311        92        91        93
       562       562        39        38        49
       385       385        16        26        37
       745       745        32        52        42
       955       955        64        65        76
      1155      1155        81        80        89
       123       123         7         9        10
       549       549        27        38        28
       386       386        16        26        38
      1260      1260        79        87        99
       893       893        53        62        70
      1229      1229        84        85        98
       646       646        43        44        55
       443       443        20        30        29
       653       653        34        45        46
       855       855        66        58        77
       380       380        26        25        35
       940       940        73        64        75
       152       152         9        11       100
       340       340        32        22        33
       677       677        55        46        56
      1385      1385         6        97        96
       255       255        15        17        18
       145       145        11        10        19
      1119      1119        67        78        77
      1088      1088        75        76        77
       767       767        43        53        54
       427       427        19        29        20
      1185      1185        71        82        72
      1285      1285        80        89       100
       493       493        24        33        34
       573       573        29        39        38
      1183      1183        82        81        92
        50        50        93         3        95
       932       932        63        64        65
      1200      1200        73        83        74
        67        67         6         5        95
      1346      1346        82        94        83
      1015      1015        61        70        81
       839       839        56        57        65
      1348      1348        82        94        93
       811       811        46        56        55
       663       663        44        45        55
       305       305        19        20        29
      1376      1376        84        96        85
       436       436        30        29        39
       373       373        15        25        26
       627       627        33        43        52
        54        54         3         4        17
        68        68         6         5        96
       997       997        68        69        70
       572       572        28        39        49
      1343      1343        73        94        83
       794       794        55        54        63
       448       448        21        30        41
       702       702        38        49        47
       741       741        42        51        60
      1033      1033        62        72        71
      1345      1345        73        94        93
       860       860        51        59        60
      1313      1313        81        92        90
       751       751        42        52        43
      1383      1383         6        97         8
       382       382        16        26        25
       235       235        25        16        26
       922       922        62        63        72
       131       131        11         9       100
       796       796        44        55        45
        45        45         4         3        95
       806       806        46        55        56
       634       634        44        43        52
       604       604        31        41        42
       771       771        52        53        54
       366       366        14        25        15
       372       372        15        25        24
       571       571        28        39        40
       356       356        23        24        25
       516       516        24        35        45
      1392      1392         8        97        96
      1014      1014        61        70        71
       809       809        54        55        63
       687       687        48        47        49
      1002      1002        70        69        80
      1032      1032        62        72        63
       510       510        43        34        44
      1371      1371         5        96        97
       669       669        36        46        57
       710       710        40        49        48
       954       954        64        65        75
      1267      1267        79        88        80
       787       787        44        54        55
       735       735        41        51        42
       466       466        21        32        43
       581       581        29        40        49
       615       615        32        42        52
        90        90         8         7        98
      1237      1237        76        86        85
       327       327        22        21        32
       967       967        59        66        77
       229       229        17        15        25
       623       623        32        43        53
       465       465        21        32        42
      1105      1105        66        77        86
       731       731        40        51        42
      1242      1242        77        86        98
       513       513        24        35        25
       974       974        59        67        68
       456       456        30        31        32
       925       925        64        63        73
       334       334        13        22        33
       883       883        52        61        68
      1318      1318        82        92        91
      1064      1064        64        74        75
      1062      1062        83        73        94
       842       842        48        58        57
      1123      1123        68        78        79
       343       343        13        23        24
       905       905        71        62        72
       219       219         3        15        25
       233       233        17        16        25
       956       956        75        65        76
      1133      1133        69        79        78
      1026      1026        70        71        72
      1334      1334        91        93        92
       827       827        46        57        48
      1364      1364        83        95        84
       708       708        39        49        50
       268       268         8        18        17
       354       354        14        24        34
      1221      1221        76        85        84
      1356      1356         3        95        96
      1205      1205        94        83        95
      1365      1365        83        95        96
       445       445        20        30        41
        51        51        94         3        95
      1169      1169        69        81        92
        16        16         1         2         3
       271       271        17        18        27
       542       542        46        37        47
       402       402        17        27        18
       652       652        34        45        44
       258       258        16        17        18
       353       353        14        24        33
      1397      1397         7        98        85
      1130      1130        68        79        80
      1235      1235        97        85        98
       140       140         8        10        19
       555       555        28        38        39
       498       498        24        34        33
      1116      1116        66        78        79
       341       341        13        23        14
       262       262        18        17        27
       176       176         1        13        21
        62        62         4         5         6
       447       447        21        30        31
       390       390        17        26        37
       121       121        19         8        97
        11        11        13         1        90
      1406      1406        86        98        87
       786       786        44        54        53
       421       421        19        28        27
      1274      1274        87        88        99
       418       418        18        28        27
      1427      1427        11       100        88
        23        23         3         2        14
       736       736        41        51        52
       857       857        50        59        60
       784       784        43        54        62
      1243      1243        85        86        87
       971       971        77        66        78
       391       391        17        26        38
      1409      1409        87        98        97
       298       298        11        20        29
       554       554        28        38        37
      1320      1320        82        92        94
       467       467        21        32        52
      1290      1290         1        90        91
       697       697        50        48        57
       869       869        51        60        67
       628       628        33        43        53
         6         6        12         1        13
       519       519        25        35        45
       195       195         2        14        15
        34        34        15         2        91
       891       891        53        62        54
       432       432        20        29        30
       551       551        27        38        39
       266       266         6        18        27
      1219      1219        85        84        96
       871       871        52        60        59
       631       631        34        43        52
       127       127        10         9        11
       374       374        15        25        35
       238       238         4        17        15
      1308      1308         2        91        93
      1091      1091        75        76        86
       585       585        39        40        49
      1277      1277         1        89        11
       406       406        18        27        26
       635       635        44        43        53
      1431      1431        88       100        89
       307       307        21        20        29
       163       163         1        12        11
       310       310        12        21        13
       151       151         9        11        89
      1273      1273        80        88       100
       550       550        27        38        37
       598       598        29        41        51
       303       303        12        20        30
      1276      1276        99        88       100
      1147      1147        69        80        90
       804       804        45        55        63
       453       453        21        31        32
       387       387        17        26        25
      1347      1347        82        94        92
       304       304        19        20        21
      1083      1083        65        76        75
       415       415         8        28        38
      1100      1100        58        77        78
       193       193        22        13        23
      1215      1215        76        84        85
      1227      1227        84        85        96
       575       575        29        39        49
       618       618        51        42        52
      1074      1074        64        75        74
       982       982        60        68        61
      1078      1078        65        75        76
      1156      1156        81        80        90
      1367      1367         5        96         6
       135       135         7        10        11
      1359      1359         4        95        84
       451       451        31        30        41
       600       600        30        41        40
       314       314        12        21        31
       835       835        48        57        56
       433       433        20        29        39
       742       742        52        51        59
       320       320        13        21        32
       263       263        26        17        27
       426       426        38        28        39
       355       355        14        24        35
       737       737        41        51        59
      1102      1102        58        77        87
       668       668        36        46        56
       413       413         8        28        19
       444       444        20        30        31
       537       537        36        37        38
       499       499        24        34        35
      1422      1422         9       100        11
       611       611        31        42        51
       820       820        57        56        63
      1401      1401         7        98        99
      1388      1388         7        97        85
       584       584        39        40        41
      1004      1004        79        69        80
       126       126         7         9       100
      1209      1209        74        84        95
       230       230        15        16        17
       670       670        37        46        45
       102       102         6         8         7
       494       494        24        33        43
      1418      1418         9        99        98
        72        72         5         6         8
       491       491        23        33        43
       747       747        32        52        51
        73        73         5         6        17
      1080      1080        74        75        76
      1045      1045        63        73        82
      1212      1212        75        84        85
      1018      1018        62        70        81
       133       133         7        10         8
       566       566        19        39        38
       768       768        43        53        61
      1118      1118        67        78        68
       529       529        35        36        46
      1247      1247        77        87        79
       577       577        38        39        49
       361       361        25        24        34
       587       587        39        40        51
        53        53         3         4        15
      1317      1317        82        92        90
      1167      1167        69        81        82
      1321      1321        90        92        91
       647       647        45        44        54
      1066      1066        64        74        84
       910       910        54        63        72
       205       205        15        14        25
       595       595        29        41        31
        63        63         4         5        17
       189       189        14        13        22
       812       812        46        56        57
       350       350        24        23        33
       360       360        25        24        33
       831       831        47        57        48
      1233      1233        96        85        97
       589       589        41        40        50
      1145      1145        69        80        88
      1148      1148        69        80       100
       699       699        57        48        58
      1038      1038        63        72        82
       576       576        38        39        40
       154       154        10        11        20
      1386      1386         6        97        98
       960       960        50        66        77
       523       523        26        36        35
       729       729        59        50        66
       906       906        54        63        55
        20        20         1         2        91
       242       242         4        17        27
      1154      1154        81        80        88
       252       252         6        17        26
      1157      1157        81        80       100
       607       607        40        41        51
      1020      1020        69        70        81
       837       837        48        57        65
      1092      1092        77        76        84
       719       719        40        50        66
       632       632        34        43        53
      1017      1017        62        70        71
       438       438        30        29        41
       245       245         5        17        16
       879       879        61        60        68
      1252      1252        78        87        79
      1128      1128        68        79        69
      1226      1226        84        85        86
       563       563        47        38        49
        25        25         3         2        91
       706       706        39        49        47
      1236      1236        76        86        77
        30        30        13         2        93
        47        47        15         3        94
       694       694        49        48        50
       752       752        42        52        51
       605       605        31        41        51
       511       511        43        34        45
       178       178         1        13        23
       933       933        63        64        73
        60        60        15         4        95
       392       392        25        26        27
      1323      1323        90        92        94
       915       915        55        63        72
      1160      1160        88        80       100
      1053      1053        72        73        74
       716       716        40        50        49
       543       543        26        38        27
      1186      1186        71        82        73
      1055      1055        72        73        83
       781       781        43        54        44
       165       165         1        12        20
       730       730        40        51        41
      1141      1141        80        79        88
       704       704        38        49        50
       297       297        11        20        21
      1407      1407        86        98        97
        70        70        17         5        96
       570       570        28        39        38
      1163      1163        90        80       100
      1362      1362         5        95        84
       691       691        47        48        50
       779       779        61        53        70
      1244      1244        85        86        98
      1037      1037        63        72        73
       843       843        48        58        65
      1165      1165        69        81        71
       325       325        22        21        30
       261       261        18        17        26
       964       964        58        66        77
       664       664        46        45        55
      1049      1049        64        73        74
      1363      1363         5        95        96
      1051      1051        64        73        83
       991       991        67        68        69
      1019      1019        69        70        71
       790       790        53        54        55
        84        84        18         6        96
      1393      1393         8        97        98
       969       969        67        66        77
      1307      1307         2        91        92
       484       484        22        33        24
       412       412         8        28        18
       137       137         7        10        20
      1140      1140        80        79        87
       153       153        10        11        12
      1301      1301        91        90        92
      1342      1342        73        94        82
       998       998        68        69        79
        92        92         9         7        10
       801       801        45        55        46
       877       877        59        60        68
       700       700        38        49        39
      1061      1061        82        73        94
       323       323        20        21        31
       122       122        28         8        97
       338       338        23        22        32
      1139      1139        78        79        88
       671       671        37        46        55
       362       362        25        24        35
      1000      1000        68        69        81
       538       538        36        37        46
       289       289        10        20        11
       371       371        15        25        16
       369       369        14        25        26
       108       108         7         8        10
       439       439        39        29        40
      1192      1192        72        82        92
       180       180         2        13        14
       246       246         5        17        18
       769       769        43        53        62
       778       778        61        53        62
      1339      1339         3        94        83
       900       900        63        62        70
       479       479        33        32        52
      1341      1341         3        94        93
       890       890        68        61        70
      1008      1008        53        70        62
       658       658        35        45        55
       878       878        61        60        67
       553       553        27        38        49
      1067      1067        73        74        75
      1138      1138        78        79        87
       257       257        15        17        27
       705       705        39        49        40
       829       829        46        57        58
       302       302        12        20        29
       846       846        50        58        57
       368       368        14        25        24
      1335      1335        91        93        94
      1419      1419        87        99        88
      1291      1291         1        90        92
       541       541        38        37        47
      1224      1224        76        85        97
       425       425        27        28        39
       191       191        21        13        22
      1044      1044        63        73        74
       401       401        37        26        38
      1182      1182        82        81        90
      1046      1046        63        73        83
      1338      1338         3        94        82
      1284      1284        80        89        90
        37        37         2         3         4
       168       168        11        12        20
       973       973        59        67        66
       892       892        53        62        63
        48        48        15         3        95
       887       887        53        61        70
       267       267         6        18        28
       680       680        37        47        38
       642       642        34        44        54
       192       192        21        13        23
      1107      1107        76        77        78
       199       199        13        14        15
       929       929        56        64        73
       408       408        18        27        38
      1195      1195        73        82        92
       276       276         8        19        28
       744       744        59        51        60
      1415      1415         7        99        98
       506       506        33        34        45
       179       179         2        13        12
      1129      1129        68        79        78
      1220      1220        95        84        96
       273       273        27        18        28
      1021      1021        71        70        81
       117       117        18         8        19
      1172      1172        70        81        82
       926       926        72        63        73
      1111      1111        78        77        87
         1         1         2         1        12
       881       881        52        61        53
       434       434        20        29        40
       739       739        42        51        52
      1259      1259        79        87        98
      1124      1124        68        78        87
      1324      1324        91        92        93
       821       821        57        56        64
      1125      1125        77        78        79
        55        55         3         4        95
        43        43         4         3        93
      1110      1110        78        77        86
       185       185        12        13        21
       684       684        38        47        48
      1087      1087        65        76        86
       339       339        23        22        33
       508       508        35        34        44
       128       128        10         9        99
       990       990        61        68        79
       992       992        67        68        78
      1228      1228        84        85        97
      1283      1283        11        89       100
       170       170        13        12        20
       654       654        34        45        55
       393       393        25        26        36
       872       872        52        60        61
       601       601        30        41        42
      1081      1081        74        75        84
       815       815        46        56        65
       951       951        58        65        64
      1158      1158        88        80        89
       120       120        19         8        28
      1369      1369         5        96        85
      1430      1430        80       100        89
      1204      1204        74        83        95
       714       714        48        49        50
        33        33        14         2        93
       679       679        56        46        57
       260       260        16        17        27
       819       819        55        56        65
       612       612        31        42        52
       370       370        14        25        35
      1417      1417         9        99        88
       182       182         2        13        22
      1168      1168        69        81        90
       606       606        40        41        42
      1093      1093        77        76        85
       521       521        34        35        45
       588       588        41        40        49
       785       785        43        54        63
      1240      1240        77        86        85
       715       715        40        50        48
       377       377        16        25        35
       383       383        16        26        27
      1191      1191        72        82        81
       475       475        31        32        43
       315       315        12        21        32
       138       138         8        10         9
       723       723        48        50        66
       865       865        66        59        67
       296       296        11        20        19
       495       495        32        33        34
       740       740        42        51        59
       863       863        60        59        66
       474       474        31        32        42
      1137      1137        78        79        80
       183       183         2        13        23
       616       616        41        42        51
       930       930        56        64        74
      1416      1416         9        99        87
       526       526        26        36        46
      1104      1104        66        77        78
       114       114        10         8        19
      1075      1075        64        75        76
       194       194         2        14        13
      1069      1069        73        74        84
      1387      1387         7        97         8
       833       833        47        57        58
       721       721        48        50        58
      1127      1127        79        78        87
      1089      1089        75        76        84
       202       202        13        14        25
      1394      1394        85        97        96
       861       861        51        59        66
      1329      1329         2        93        92
       720       720        48        50        49
        27        27        13         2        14
       109       109         7         8        18
       649       649        54        44        55
       824       824        63        56        65
       282       282        10        19        39
      1288      1288         1        90        81
      1190      1190        72        82        73
       780       780        62        53        70
      1286      1286        90        89       100
       799       799        44        55        56
      1106      1106        66        77        87
       420       420        18        28        39
      1097      1097        85        76        86
       346       346        14        23        24
       211       211         2        15        14
        89        89         8         7        97
       136       136         7        10        19
       283       283        20        19        28
      1287      1287         1        90        80
        39        39         2         3        93
       544       544        26        38        28
      1302      1302         1        91         2
      1289      1289         1        90        89
       690       690        47        48        49
      1114      1114        66        78        68
      1249      1249        77        87        88
       290       290        10        20        12
       365       365        34        24        35
       487       487        22        33        43
       336       336        21        22        32
       660       660        36        45        46
       527       527        35        36        37
      1042      1042        63        73        64
       231       231        15        16        25
       159       159        12        11       100
       162       162        89        11       100
       347       347        14        23        33
      1355      1355         3        95        84
      1194      1194        73        82        81
       419       419        18        28        38
        82        82        17         6        96
       701       701        38        49        40
       224       224        14        15        16
       624       624        32        43        54
        81        81        17         6        18
       331       331        13        22        21
       590       590        41        40        51
       986       986        60        68        79
       899       899        54        62        72
       673       673        37        46        57
       501       501        24        34        44
      1358      1358         4        95        83
       711       711        40        49        50
       278       278         8        19        39
       818       818        55        56        64
       682       682        37        47        49
      1420      1420        87        99        98
      1188      1188        71        82        92
       528       528        35        36        45
      1248      1248        77        87        86
       103       103         6         8        10
      1327      1327         2        93         3
       928       928        56        64        65
        85        85        18         6        97
       847       847        50        58        65
      1153      1153        79        80       100
       580       580        29        40        41
      1303      1303         1        91        90
       250       250         6        17        16
       175       175         1        13        14
       759       759        43        52        61
       469       469        22        32        33
       294       294        10        20        30
        15        15        90         1        91
      1254      1254        78        87        88
      1023      1023        62        71        72
      1041      1041        73        72        82
      1269      1269        79        88        99
       732       732        40        51        52
        17        17         1         2        13
       244       244         5        17        15
      1218      1218        85        84        95
       187       187        12        13        23
       841       841        48        58        50
      1054      1054        72        73        82
      1239      1239        76        86        98
      1121      1121        67        78        87
       210       210         2        15         4
       206       206        23        14        24
      1336      1336        92        93        94
       583       583        29        40        51
       889       889        60        61        70
        36        36        91         2        93
       953       953        58        65        76
       620       620        32        43        34
       411       411        28        27        38
       858       858        50        59        66
        22        22         3         2        13
       748       748        32        52        53
       442       442        20        30        21
      1113      1113        66        78        67
       936       936        65        64        73
      1230      1230        86        85        96
      1050      1050        64        73        82
      1281      1281        11        89        80
       665       665        36        46        37
      1184      1184        90        81        92
       157       157        12        11        20
      1065      1065        64        74        83
       441       441        40        29        41
      1011      1011        53        70        81
       619       619        32        43        33
      1253      1253        78        87        86
      1410      1410        87        98        99
       113       113        10         8        18
       324       324        20        21        32
       105       105         6         8        19
       388       388        17        26        27
       648       648        45        44        55
       907       907        54        63        56
       979       979        66        67        68
       610       610        31        42        41
       203       203        15        14        23
      1403      1403        85        98        87
       636       636        44        43        54
        75        75         5         6        96
      1013      1013        61        70        69
       156       156        10        11       100
       666       666        36        46        45
      1178      1178        71        81        92
      1271      1271        80        88        87
       919       919        56        63        72
