LAMMPS data file.

    140 atoms
    401 bonds
   1935 angles
      0 dihedrals
      0 impropers
      1 atom types
    401 bond types
   1935 angle types
      0 dihedral types
      0 improper types
  -6.490102   6.490102 xlo xhi
  -6.490102   6.490102 ylo yhi
  -0.100000   0.100000 zlo zhi
0.0 0.0 0.0 xy xz yz

Masses # ['atom_id', 'mass']

1 1000000.0

Atoms # ['atomID', 'moleculeID', 'atomType', 'charge', 'x', 'y', 'z']

      1      1      1   0.000000  -5.323850  -5.443860   0.000000
      2      1      1   0.000000  -3.537020  -5.621850   0.000000
      3      1      1   0.000000  -4.285820  -6.472650   0.000000
      4      1      1   0.000000  -3.027830  -6.361650   0.000000
      5      1      1   0.000000  -1.987720  -5.829990   0.000000
      6      1      1   0.000000  -0.815712  -6.094580   0.000000
      7      1      1   0.000000   0.531238   6.401680   0.000000
      8      1      1   0.000000   1.300760  -5.839570   0.000000
      9      1      1   0.000000   2.354390  -6.132260   0.000000
     10      1      1   0.000000   3.080280  -5.490790   0.000000
     11      1      1   0.000000   3.664880   6.467520   0.000000
     12      1      1   0.000000   5.059980  -5.880080   0.000000
     13      1      1   0.000000   6.436020  -5.773200   0.000000
     14      1      1   0.000000  -6.167770  -4.726400   0.000000
     15      1      1   0.000000  -5.471350  -4.346430   0.000000
     16      1      1   0.000000  -4.627140  -4.508530   0.000000
     17      1      1   0.000000  -4.291010  -5.251000   0.000000
     18      1      1   0.000000  -3.468350  -4.545720   0.000000
     19      1      1   0.000000  -2.802050  -5.230340   0.000000
     20      1      1   0.000000  -0.927832  -4.972830   0.000000
     21      1      1   0.000000   0.175236  -5.514010   0.000000
     22      1      1   0.000000   1.160280  -4.689030   0.000000
     23      1      1   0.000000   2.174740  -5.039010   0.000000
     24      1      1   0.000000   3.212980  -4.539250   0.000000
     25      1      1   0.000000   3.953210  -5.458280   0.000000
     26      1      1   0.000000   4.463360  -4.531430   0.000000
     27      1      1   0.000000   5.698080  -4.623590   0.000000
     28      1      1   0.000000  -5.216550  -3.248800   0.000000
     29      1      1   0.000000  -4.067350  -3.554170   0.000000
     30      1      1   0.000000  -2.995980  -3.570890   0.000000
     31      1      1   0.000000  -2.010600  -4.264770   0.000000
     32      1      1   0.000000  -1.298010  -3.321650   0.000000
     33      1      1   0.000000  -0.784714  -4.003720   0.000000
     34      1      1   0.000000   0.149499  -4.331690   0.000000
     35      1      1   0.000000   0.943990  -3.390040   0.000000
     36      1      1   0.000000   2.212070  -3.766530   0.000000
     37      1      1   0.000000   3.750420  -3.529880   0.000000
     38      1      1   0.000000   5.078680  -3.354080   0.000000
     39      1      1   0.000000  -6.451460  -3.521250   0.000000
     40      1      1   0.000000  -6.031230  -2.314770   0.000000
     41      1      1   0.000000  -4.347920  -2.529780   0.000000
     42      1      1   0.000000  -3.405020  -2.556970   0.000000
     43      1      1   0.000000  -2.311700  -2.617120   0.000000
     44      1      1   0.000000  -0.175640  -3.263770   0.000000
     45      1      1   0.000000  -0.989928  -2.229710   0.000000
     46      1      1   0.000000   0.203550  -2.379870   0.000000
     47      1      1   0.000000   1.002780  -2.278920   0.000000
     48      1      1   0.000000   1.987640  -2.511160   0.000000
     49      1      1   0.000000   3.024470  -2.875840   0.000000
     50      1      1   0.000000   4.127630  -2.406570   0.000000
     51      1      1   0.000000   5.992280  -2.573620   0.000000
     52      1      1   0.000000  -5.761160  -1.183420   0.000000
     53      1      1   0.000000  -5.086160  -2.054420   0.000000
     54      1      1   0.000000  -4.816470  -1.148710   0.000000
     55      1      1   0.000000  -4.142200  -1.704260   0.000000
     56      1      1   0.000000  -3.122240  -1.513850   0.000000
     57      1      1   0.000000  -2.072370  -1.307260   0.000000
     58      1      1   0.000000  -0.133262  -1.575140   0.000000
     59      1      1   0.000000   0.686851  -1.488080   0.000000
     60      1      1   0.000000   1.595850  -1.611600   0.000000
     61      1      1   0.000000   3.002990  -1.920670   0.000000
     62      1      1   0.000000   5.274340  -2.186240   0.000000
     63      1      1   0.000000   4.931240  -1.478170   0.000000
     64      1      1   0.000000   6.043640  -1.450720   0.000000
     65      1      1   0.000000   6.453930  -0.222030   0.000000
     66      1      1   0.000000  -3.924760  -0.856164   0.000000
     67      1      1   0.000000  -2.906570  -0.551637   0.000000
     68      1      1   0.000000  -1.852230  -0.098746   0.000000
     69      1      1   0.000000  -0.958646  -0.923304   0.000000
     70      1      1   0.000000   0.087022  -0.538082   0.000000
     71      1      1   0.000000   1.229420  -0.585573   0.000000
     72      1      1   0.000000   2.493970  -0.905637   0.000000
     73      1      1   0.000000   3.939780  -0.940858   0.000000
     74      1      1   0.000000   5.236410  -0.604528   0.000000
     75      1      1   0.000000  -6.023860   0.975377   0.000000
     76      1      1   0.000000  -5.117160  -0.046214   0.000000
     77      1      1   0.000000  -3.813010   0.219477   0.000000
     78      1      1   0.000000  -2.688750   0.501362   0.000000
     79      1      1   0.000000  -1.556050   0.968509   0.000000
     80      1      1   0.000000  -0.651533   0.270670   0.000000
     81      1      1   0.000000   0.712823   0.684182   0.000000
     82      1      1   0.000000   2.020500   0.351937   0.000000
     83      1      1   0.000000   3.182490   0.097738   0.000000
     84      1      1   0.000000   2.766180   1.100290   0.000000
     85      1      1   0.000000   3.659670   1.039390   0.000000
     86      1      1   0.000000   4.339340   0.277568   0.000000
     87      1      1   0.000000   5.598320   0.619468   0.000000
     88      1      1   0.000000  -4.681290   1.281110   0.000000
     89      1      1   0.000000  -3.429680   1.116080   0.000000
     90      1      1   0.000000  -3.640330   1.942780   0.000000
     91      1      1   0.000000  -2.475130   1.762440   0.000000
     92      1      1   0.000000  -1.317090   2.058380   0.000000
     93      1      1   0.000000  -0.404774   1.298450   0.000000
     94      1      1   0.000000   0.737739   2.025520   0.000000
     95      1      1   0.000000   1.747900   1.417050   0.000000
     96      1      1   0.000000   2.584310   1.949970   0.000000
     97      1      1   0.000000   3.499010   1.937450   0.000000
     98      1      1   0.000000   4.619980   1.672290   0.000000
     99      1      1   0.000000   6.018330   1.980300   0.000000
    100      1      1   0.000000  -5.657290   2.329680   0.000000
    101      1      1   0.000000  -4.475510   2.726150   0.000000
    102      1      1   0.000000  -3.223430   2.970190   0.000000
    103      1      1   0.000000  -2.063100   3.047120   0.000000
    104      1      1   0.000000  -0.359802   2.273370   0.000000
    105      1      1   0.000000  -0.929698   3.086890   0.000000
    106      1      1   0.000000   0.117847   3.085770   0.000000
    107      1      1   0.000000   1.066600   3.004120   0.000000
    108      1      1   0.000000   1.796760   2.428820   0.000000
    109      1      1   0.000000   2.935500   2.752860   0.000000
    110      1      1   0.000000   4.016620   2.721790   0.000000
    111      1      1   0.000000   5.104920   2.659540   0.000000
    112      1      1   0.000000  -5.346960   3.736190   0.000000
    113      1      1   0.000000  -3.966210   4.057240   0.000000
    114      1      1   0.000000  -2.690650   4.152900   0.000000
    115      1      1   0.000000  -1.501160   4.070650   0.000000
    116      1      1   0.000000  -0.265604   4.010550   0.000000
    117      1      1   0.000000   0.897320   3.951540   0.000000
    118      1      1   0.000000   2.112030   3.567060   0.000000
    119      1      1   0.000000   3.524070   3.846700   0.000000
    120      1      1   0.000000   4.809660   3.575750   0.000000
    121      1      1   0.000000   6.199610   3.463830   0.000000
    122      1      1   0.000000  -6.165140   4.892130   0.000000
    123      1      1   0.000000  -4.797570   5.121230   0.000000
    124      1      1   0.000000  -3.351530   5.414660   0.000000
    125      1      1   0.000000  -2.060090   5.141640   0.000000
    126      1      1   0.000000  -0.923780   5.072110   0.000000
    127      1      1   0.000000   0.429116   5.085500   0.000000
    128      1      1   0.000000   1.500810   4.637530   0.000000
    129      1      1   0.000000   2.460080   4.780590   0.000000
    130      1      1   0.000000   3.546800   5.121660   0.000000
    131      1      1   0.000000   4.490890   4.531370   0.000000
    132      1      1   0.000000   5.531240   4.634990   0.000000
    133      1      1   0.000000  -5.715350   6.220520   0.000000
    134      1      1   0.000000  -2.382170   6.031920   0.000000
    135      1      1   0.000000  -1.427680   6.044180   0.000000
    136      1      1   0.000000  -0.346924   6.014600   0.000000
    137      1      1   0.000000   1.640060   5.802030   0.000000
    138      1      1   0.000000   2.771790   5.780610   0.000000
    139      1      1   0.000000   4.768050   5.698370   0.000000
    140      1      1   0.000000   5.957130   5.982200   0.000000

Bond Coeffs # ['bondID', 'bondCoeff', 'd']

      1   0.073401   1.461477
      2   0.585590   1.263993
      3   0.204945   1.107678
      4   1.072709   1.107298
      5   0.321839   1.166296
      6   0.628684   1.050692
      7   0.805632   1.372831
      8   0.259442   1.133385
      9   0.762051   0.898097
     10   0.791717   0.840256
     11   0.928254   1.078319
     12   1.034833   0.832743
     13   0.778398   1.262878
     14   0.830557   1.221661
     15   0.741848   1.477762
     16   0.064401   1.437816
     17   0.586562   1.458062
     18   0.081957   1.168114
     19   0.854554   1.246652
     20   0.270647   0.872362
     21   0.596218   1.201504
     22   0.089909   1.011293
     23   0.060983   1.363116
     24   0.610288   1.565387
     25   0.896168   1.185821
     26   0.650936   1.239740
     27   0.925411   1.127340
     28   0.071740   1.148494
     29   0.627499   1.040448
     30   0.934439   0.989163
     31   0.154780   1.066872
     32   0.975643   1.122465
     33   0.885322   1.320136
     34   0.319921   0.959687
     35   0.202937   1.260582
     36   0.578521   1.093528
     37   0.622941   1.171663
     38   0.866185   1.159084
     39   0.144598   1.185216
     40   0.685672   1.380936
     41   0.313749   0.968711
     42   0.586060   1.364590
     43   0.858654   1.107912
     44   0.391792   1.266571
     45   0.856032   1.146047
     46   0.737748   1.177295
     47   0.560927   1.011982
     48   0.926472   0.960748
     49   0.998315   0.873535
     50   0.195355   1.531826
     51   0.876198   1.093115
     52   0.771728   1.351030
     53   0.144348   1.126701
     54   0.043999   1.344833
     55   0.361679   1.380185
     56   0.482577   1.184422
     57   0.539984   1.474725
     58   0.490113   1.409234
     59   0.671452   1.431829
     60   0.090870   1.433398
     61   0.894560   1.112420
     62   0.383227   1.366074
     63   0.169178   1.288455
     64   0.683397   1.315097
     65   0.291690   0.793333
     66   0.813325   1.119086
     67   0.886760   1.238090
     68   0.441563   0.859632
     69   1.046703   1.126816
     70   0.136737   1.281225
     71   1.256903   0.815012
     72   0.830255   1.159387
     73   0.623966   1.106421
     74   0.187791   1.083600
     75   0.507924   0.955332
     76   0.669257   1.158435
     77   0.936041   1.083248
     78   0.499435   1.484577
     79   0.344140   1.248487
     80   0.339928   1.228672
     81   0.271193   1.293729
     82   1.077846   0.979621
     83   0.448586   1.253676
     84   0.303679   1.284875
     85   0.831850   1.182600
     86   0.255888   1.073133
     87   0.315718   1.072087
     88   0.742958   1.316874
     89   0.218121   1.399024
     90   0.375405   1.152260
     91   0.782683   1.273027
     92   0.582023   1.180067
     93   0.666202   1.250404
     94   0.031991   1.264483
     95   0.511108   1.143534
     96   0.562010   1.057972
     97   0.659102   1.238155
     98   0.562000   1.229384
     99   0.514318   1.328447
    100   0.548445   1.412555
    101   0.160349   1.380274
    102   0.340890   1.189080
    103   0.707187   1.264607
    104   0.257473   1.239401
    105   0.136226   1.127612
    106   0.962180   1.201476
    107   0.933959   1.071500
    108   0.965864   1.062118
    109   0.587286   1.197117
    110   0.030426   1.205173
    111   0.940437   1.093320
    112   0.138809   1.173847
    113   0.103999   1.182057
    114   0.653656   1.253373
    115   1.159876   0.853635
    116   0.032675   1.234476
    117   0.819857   1.123861
    118   0.915610   1.134569
    119   0.648024   0.990110
    120   0.465116   0.958382
    121   0.158009   1.232039
    122   0.851643   1.116319
    123   0.603710   1.322789
    124   0.526088   1.126728
    125   0.885448   1.112674
    126   0.185603   1.364418
    127   0.774372   1.275274
    128   0.059687   1.205538
    129   0.528231   1.339843
    130   0.063242   0.977124
    131   0.804609   1.184953
    132   0.526351   1.459668
    133   0.058264   1.342487
    134   0.115177   1.201575
    135   0.771510   1.184117
    136   0.804324   1.277571
    137   0.695080   1.088943
    138   0.928465   0.991093
    139   0.891036   1.163138
    140   0.795954   0.980275
    141   0.164142   1.251484
    142   0.933580   0.943292
    143   0.180634   0.878047
    144   1.270832   0.850767
    145   0.965747   1.094973
    146   0.883892   1.080770
    147   0.517557   1.377377
    148   0.372115   1.369007
    149   0.789713   1.331545
    150   0.431774   1.316186
    151   0.842819   0.961803
    152   0.825216   1.202887
    153   0.050430   1.422180
    154   0.166114   1.078118
    155   0.772386   1.306780
    156   0.297926   0.805580
    157   1.250689   0.872372
    158   0.661194   1.011872
    159   1.005507   0.851610
    160   0.906359   0.892775
    161   0.673130   1.099094
    162   0.770486   0.981176
    163   0.124748   1.174570
    164   0.575368   1.198823
    165   1.191990   0.955411
    166   0.449971   1.225118
    167   0.642415   1.167685
    168   0.143636   1.227891
    169   0.614597   1.477701
    170   0.517774   0.815782
    171   0.810512   1.124074
    172   0.649631   1.101937
    173   1.179585   0.945327
    174   0.570633   1.205414
    175   0.235962   1.228686
    176   0.630341   1.306895
    177   1.094406   0.945010
    178   0.512713   0.873657
    179   0.316517   0.938472
    180   0.840024   1.142765
    181   0.672867   1.037581
    182   1.365958   0.875527
    183   0.596287   1.070003
    184   0.512939   1.037588
    185   1.117573   0.986087
    186   0.284625   1.125547
    187   0.901210   1.228401
    188   0.283689   1.178051
    189   0.905880   0.824721
    190   0.333964   1.051736
    191   0.949277   1.060195
    192   1.024486   0.917353
    193   0.613139   1.123517
    194   0.644662   1.053043
    195   0.898569   1.089496
    196   0.042229   1.142367
    197   0.593986   1.135515
    198   0.160542   1.355584
    199   1.171362   0.786817
    200   0.164716   1.064337
    201   0.776642   1.112739
    202   0.125751   1.127696
    203   1.055637   0.925408
    204   0.674040   1.295383
    205   0.224887   1.169470
    206   0.448837   1.276189
    207   0.778545   1.298539
    208   0.579177   1.420040
    209   0.123003   1.200078
    210   0.656648   1.062755
    211   1.015456   1.081430
    212   0.394574   1.147494
    213   0.264053   1.190063
    214   1.122283   1.075292
    215   0.106603   1.215890
    216   0.084043   1.029512
    217   0.934256   1.107590
    218   0.654554   1.256241
    219   0.711589   1.114369
    220   0.900931   1.232839
    221   0.792355   1.143384
    222   0.049291   1.095237
    223   0.343465   1.373155
    224   0.509145   1.304426
    225   0.706454   1.370821
    226   0.122879   1.226675
    227   0.538207   1.446239
    228   0.685276   1.343751
    229   0.301178   1.216890
    230   0.470240   1.339540
    231   0.269656   1.285367
    232   0.731287   1.282268
    233   0.103259   1.258105
    234   0.740421   1.276380
    235   0.321847   1.365926
    236   0.476618   1.403887
    237   0.458665   1.376941
    238   0.074239   1.374678
    239   0.833569   1.403036
    240   0.349416   1.330939
    241   0.778489   1.397058
    242   0.819207   1.159060
    243   0.355313   1.371487
    244   1.133692   0.975110
    245   0.501184   0.962733
    246   0.833432   1.279043
    247   0.674419   1.142423
    248   0.051456   1.214510
    249   1.003389   1.115760
    250   0.742730   1.197621
    251   1.046248   1.056987
    252   0.612595   1.349224
    253   0.040129   1.275284
    254   0.772315   1.341570
    255   0.144264   1.268259
    256   0.631190   1.189470
    257   0.465966   1.056443
    258   0.915154   1.099444
    259   0.782331   1.085553
    260   0.834726   1.055656
    261   0.735780   1.170744
    262   0.889044   0.895563
    263   0.801521   1.066410
    264   1.038726   0.868926
    265   0.250633   1.020943
    266   1.045956   0.912318
    267   0.250135   1.150112
    268   0.373423   1.304579
    269   0.639971   1.422676
    270   0.055049   1.437214
    271   0.674375   1.424174
    272   0.792091   1.262443
    273   0.159832   1.233453
    274   0.053235   1.432506
    275   0.787071   1.459618
    276   1.370522   0.853116
    277   0.190749   1.152800
    278   0.905096   1.179073
    279   0.230099   1.145074
    280   0.956142   1.108773
    281   0.454619   1.195256
    282   0.515057   1.420779
    283   0.699132   1.349137
    284   0.330465   1.187356
    285   0.299944   1.238603
    286   0.765622   0.981133
    287   0.853926   1.099048
    288   0.104896   1.354240
    289   1.128550   0.975957
    290   0.074353   1.179263
    291   0.649927   1.125178
    292   0.653912   1.228168
    293   0.977931   1.032380
    294   0.443145   1.133215
    295   0.556470   0.991759
    296   1.141679   1.012949
    297   0.925390   0.914786
    298   0.143578   0.921701
    299   0.837533   0.876337
    300   0.725689   1.151904
    301   0.890572   0.991180
    302   0.632015   0.939739
    303   0.420524   1.431871
    304   0.686702   1.210576
    305   0.874216   1.099922
    306   0.360388   1.350557
    307   0.108689   1.138282
    308   0.626994   1.494565
    309   0.341197   1.246512
    310   0.820086   1.440339
    311   0.085886   1.596279
    312   0.706030   1.275641
    313   0.092675   1.334019
    314   0.806106   1.425197
    315   0.776489   1.162877
    316   0.351484   1.316586
    317   0.740814   1.297173
    318   0.711107   1.134100
    319   0.577574   1.271443
    320   0.673324   1.167643
    321   0.667295   0.993275
    322   0.769585   0.942413
    323   0.828764   1.047546
    324   0.715076   1.137696
    325   0.515704   1.137615
    326   0.940730   0.952260
    327   0.830924   1.001126
    328   0.341149   1.164962
    329   0.344760   0.929572
    330   1.139135   0.962424
    331   0.299365   1.187361
    332   0.855784   1.181095
    333   0.862110   1.081567
    334   0.026612   1.158026
    335   0.746486   1.242135
    336   0.890920   1.090079
    337   0.741231   1.228018
    338   0.211056   1.165401
    339   1.020678   0.962611
    340   0.615436   1.417584
    341   0.556746   1.459275
    342   0.322598   1.416198
    343   0.761746   1.490022
    344   0.712266   1.279142
    345   0.146340   1.350272
    346   0.628518   1.490108
    347   0.346395   1.192330
    348   0.671104   1.424360
    349   0.343873   1.172695
    350   0.826324   1.237017
    351   0.653619   1.155980
    352   0.788156   1.164420
    353   0.541888   1.249042
    354   0.491084   1.279903
    355   0.652670   1.274106
    356   0.811127   1.226817
    357   0.160367   0.913664
    358   0.150382   1.439464
    359   0.705719   1.232678
    360   0.738858   1.262456
    361   0.609509   1.313832
    362   0.826072   1.275163
    363   0.137498   1.184700
    364   0.428547   1.394449
    365   0.985097   1.007385
    366   0.520549   1.281666
    367   0.675975   1.555257
    368   0.497690   1.348457
    369   0.542401   1.386627
    370   0.309085   1.309322
    371   0.829778   1.402473
    372   0.230762   1.387192
    373   0.490811   1.475511
    374   0.146328   1.432047
    375   0.849751   1.319984
    376   0.101615   1.149204
    377   0.482647   1.138435
    378   1.160434   0.946749
    379   0.590731   1.102053
    380   0.469427   1.352962
    381   0.773661   1.094913
    382   0.786596   1.105011
    383   0.486785   1.161553
    384   0.091212   1.210564
    385   0.135332   1.407054
    386   1.082826   0.969879
    387   0.896365   1.172796
    388   0.284011   1.138986
    389   0.538007   1.309875
    390   1.034630   1.047475
    391   0.174289   1.113440
    392   0.141766   1.017278
    393   0.260343   1.350573
    394   1.018655   1.045498
    395   0.902496   1.199461
    396   0.342513   1.308906
    397   0.859739   1.329262
    398   1.141345   0.954569
    399   1.033383   1.081161
    400   0.849528   1.131933
    401   0.164507   1.222485

Bonds # ['ID', 'type', 'atom1', 'atom2']

         1         1         1         3
         2         2         1        13
         3         3         1        14
         4         4         1        15
         5         5         1        16
         6         6         1        17
         7         7         1       133
         8         8         2         3
         9         9         2         4
        10        10         2        17
        11        11         2        18
        12        12         2        19
        13        13         3         4
        14        14         3        17
        15        15         3       123
        16        16         3       124
        17        17         3       133
        18        18         4         5
        19        19         4       124
        20        20         4       134
        21        21         5         6
        22        22         5        19
        23        23         5        20
        24        24         5        31
        25        25         5       134
        26        26         5       135
        27        27         6        20
        28        28         6        21
        29        29         6       135
        30        30         6       136
        31        31         7         8
        32        32         7        21
        33        33         7       127
        34        34         7       136
        35        35         7       137
        36        36         8         9
        37        37         8        21
        38        38         8        22
        39        39         8        23
        40        40         8       137
        41        41         9        10
        42        42         9        11
        43        43         9        23
        44        44         9       137
        45        45         9       138
        46        46        10        11
        47        47        10        23
        48        48        10        24
        49        49        10        25
        50        50        11        12
        51        51        11        25
        52        52        11       130
        53        53        11       138
        54        54        11       139
        55        55        12        13
        56        56        12        25
        57        57        12        26
        58        58        12        27
        59        59        12       139
        60        60        12       140
        61        61        13        14
        62        62        13        27
        63        63        13       133
        64        64        13       140
        65        65        14        15
        66        66        14        27
        67        67        14        39
        68        68        15        16
        69        69        15        28
        70        70        15        39
        71        71        16        17
        72        72        16        18
        73        73        16        29
        74        74        17        18
        75        75        18        19
        76        76        18        29
        77        77        18        30
        78        78        18        31
        79        79        19        31
        80        80        20        21
        81        81        20        31
        82        82        20        33
        83        83        20        34
        84        84        21        22
        85        85        21        34
        86        86        22        23
        87        87        22        34
        88        88        22        35
        89        89        22        36
        90        90        23        24
        91        91        23        36
        92        92        24        25
        93        93        24        26
        94        94        24        36
        95        95        24        37
        96        96        25        26
        97        97        26        27
        98        98        26        37
        99        99        26        38
       100       100        27        38
       101       101        27        39
       102       102        28        29
       103       103        28        39
       104       104        28        40
       105       105        28        41
       106       106        28        53
       107       107        29        30
       108       108        29        41
       109       109        29        42
       110       110        30        31
       111       111        30        42
       112       112        30        43
       113       113        31        32
       114       114        31        33
       115       115        32        33
       116       116        32        43
       117       117        32        44
       118       118        32        45
       119       119        33        34
       120       120        33        44
       121       121        34        35
       122       122        34        44
       123       123        35        36
       124       124        35        44
       125       125        35        47
       126       126        35        48
       127       127        36        48
       128       128        36        49
       129       129        37        38
       130       130        37        49
       131       131        37        50
       132       132        38        39
       133       133        38        50
       134       134        38        51
       135       135        38        62
       136       136        39        40
       137       137        39        51
       138       138        40        51
       139       139        40        52
       140       140        40        53
       141       141        40        64
       142       142        41        42
       143       143        41        53
       144       144        41        55
       145       145        42        43
       146       146        42        56
       147       147        43        45
       148       148        43        56
       149       149        43        57
       150       150        44        45
       151       151        44        46
       152       152        45        46
       153       153        45        57
       154       154        45        58
       155       155        45        69
       156       156        46        47
       157       157        46        58
       158       158        47        48
       159       159        47        59
       160       160        47        60
       161       161        48        49
       162       162        48        60
       163       163        48        61
       164       164        49        50
       165       165        49        61
       166       166        50        61
       167       167        50        62
       168       168        50        63
       169       169        50        73
       170       170        51        62
       171       171        51        64
       172       172        52        53
       173       173        52        54
       174       174        52        64
       175       175        52        65
       176       176        52        76
       177       177        53        54
       178       178        54        55
       179       179        54        66
       180       180        54        76
       181       181        55        56
       182       182        55        66
       183       183        56        57
       184       184        56        66
       185       185        56        67
       186       186        57        67
       187       187        57        68
       188       188        57        69
       189       189        58        59
       190       190        58        69
       191       191        58        70
       192       192        59        60
       193       193        59        70
       194       194        59        71
       195       195        60        71
       196       196        60        72
       197       197        61        72
       198       198        61        73
       199       199        62        63
       200       200        62        64
       201       201        63        64
       202       202        63        73
       203       203        63        74
       204       204        64        65
       205       205        64        74
       206       206        65        74
       207       207        65        75
       208       208        65        76
       209       209        65        87
       210       210        66        67
       211       211        66        77
       212       212        67        68
       213       213        67        77
       214       214        67        78
       215       215        68        69
       216       216        68        78
       217       217        68        79
       218       218        68        80
       219       219        69        70
       220       220        69        80
       221       221        70        71
       222       222        70        80
       223       223        70        81
       224       224        71        72
       225       225        71        81
       226       226        71        82
       227       227        72        73
       228       228        72        82
       229       229        72        83
       230       230        73        74
       231       231        73        83
       232       232        73        86
       233       233        74        86
       234       234        74        87
       235       235        75        76
       236       236        75        87
       237       237        75        88
       238       238        75        99
       239       239        75       100
       240       240        76        77
       241       241        76        88
       242       242        77        78
       243       243        77        88
       244       244        77        89
       245       245        78        89
       246       246        78        91
       247       247        79        80
       248       248        79        91
       249       249        79        92
       250       250        79        93
       251       251        80        93
       252       252        81        82
       253       253        81        93
       254       254        81        94
       255       255        81        95
       256       256        82        83
       257       257        82        84
       258       258        82        95
       259       259        83        84
       260       260        83        85
       261       261        83        86
       262       262        84        85
       263       263        84        95
       264       264        84        96
       265       265        85        86
       266       266        85        97
       267       267        85        98
       268       268        86        87
       269       269        86        98
       270       270        87        98
       271       271        87        99
       272       272        88        89
       273       273        88        90
       274       274        88       100
       275       275        88       101
       276       276        89        90
       277       277        89        91
       278       278        90        91
       279       279        90       101
       280       280        90       102
       281       281        91        92
       282       282        91       102
       283       283        91       103
       284       284        92        93
       285       285        92       103
       286       286        92       104
       287       287        92       105
       288       288        93        94
       289       289        93       104
       290       290        94        95
       291       291        94       104
       292       292        94       106
       293       293        94       107
       294       294        94       108
       295       295        95        96
       296       296        95       108
       297       297        96        97
       298       298        96       108
       299       299        96       109
       300       300        97        98
       301       301        97       109
       302       302        97       110
       303       303        98        99
       304       304        98       110
       305       305        98       111
       306       306        99       100
       307       307        99       111
       308       308        99       121
       309       309       100       101
       310       310       100       112
       311       311       100       121
       312       312       101       102
       313       313       101       112
       314       314       101       113
       315       315       102       103
       316       316       102       113
       317       317       102       114
       318       318       103       105
       319       319       103       114
       320       320       103       115
       321       321       104       105
       322       322       104       106
       323       323       105       106
       324       324       105       115
       325       325       105       116
       326       326       106       107
       327       327       106       116
       328       328       106       117
       329       329       107       108
       330       330       107       117
       331       331       107       118
       332       332       108       118
       333       333       109       110
       334       334       109       118
       335       335       109       119
       336       336       110       111
       337       337       110       119
       338       338       110       120
       339       339       111       120
       340       340       112       113
       341       341       112       121
       342       342       112       122
       343       343       112       123
       344       344       113       114
       345       345       113       123
       346       346       113       124
       347       347       114       115
       348       348       114       124
       349       349       114       125
       350       350       115       116
       351       351       115       126
       352       352       116       117
       353       353       116       126
       354       354       116       127
       355       355       117       118
       356       356       117       127
       357       357       117       128
       358       358       118       119
       359       359       118       128
       360       360       118       129
       361       361       119       120
       362       362       119       130
       363       363       119       131
       364       364       120       121
       365       365       120       131
       366       366       120       132
       367       367       121       122
       368       368       121       132
       369       369       122       123
       370       370       122       132
       371       371       122       133
       372       372       122       140
       373       373       123       124
       374       374       123       133
       375       375       124       125
       376       376       124       134
       377       377       125       126
       378       378       125       134
       379       379       125       135
       380       380       126       127
       381       381       126       135
       382       382       126       136
       383       383       127       128
       384       384       127       136
       385       385       127       137
       386       386       128       129
       387       387       128       137
       388       388       129       130
       389       389       129       137
       390       390       129       138
       391       391       130       131
       392       392       130       138
       393       393       130       139
       394       394       131       132
       395       395       131       139
       396       396       132       139
       397       397       133       140
       398       398       134       135
       399       399       135       136
       400       400       137       138
       401       401       139       140

Angle Coeffs # ['angleID', 'energy', 'value (deg)']

    496   0.000000  57.789271
   1238   0.000000 171.831953
    525   0.000000 108.468483
    701   0.000000 153.923272
   1779   0.000000 142.410639
    937   0.000000 113.874569
   1320   0.000000  69.578269
   1384   0.000000 178.222424
     24   0.000000 142.299789
   1687   0.000000 178.184063
   1233   0.000000  58.792828
    603   0.000000 161.103514
    992   0.000000 105.259053
   1759   0.000000  54.950006
    669   0.000000  60.485877
   1506   0.000000  63.316727
   1803   0.000000 116.299393
    504   0.000000 137.804788
    627   0.000000  53.975243
   1009   0.000000  56.203934
   1016   0.000000 177.100635
    740   0.000000 121.983704
   1074   0.000000  53.756614
   1092   0.000000 113.225480
    936   0.000000  58.523133
   1364   0.000000 169.663299
    659   0.000000 138.827444
   1155   0.000000 150.260708
    753   0.000000  87.092279
   1248   0.000000 156.866772
    546   0.000000  86.904800
    410   0.000000 106.211199
   1081   0.000000 176.828846
   1283   0.000000  54.887105
   1572   0.000000  58.919857
    946   0.000000 102.044619
    540   0.000000  36.658939
    865   0.000000  42.300479
    695   0.000000 158.473547
   1510   0.000000 170.540372
   1170   0.000000 123.140916
    961   0.000000 112.033912
   1493   0.000000 173.065712
   1489   0.000000 126.329680
   1568   0.000000 126.816174
    406   0.000000 115.271935
   1048   0.000000 115.291355
   1314   0.000000 166.216899
    234   0.000000 149.969892
    591   0.000000  64.880642
    418   0.000000  67.135556
    165   0.000000 160.049624
    857   0.000000  43.667135
    897   0.000000  60.715326
    516   0.000000 130.443441
   1361   0.000000  60.180099
    668   0.000000 113.404556
   1694   0.000000 121.736099
   1324   0.000000 146.712498
   1096   0.000000  65.850219
   1521   0.000000  79.524775
    484   0.000000 113.619035
    474   0.000000  69.314904
    919   0.000000 173.855522
   1818   0.000000  71.344529
    160   0.000000 142.859110
   1620   0.000000 116.683577
   1505   0.000000  73.607991
    459   0.000000 148.634114
    643   0.000000  95.799413
    785   0.000000 111.455915
    106   0.000000 126.877782
    114   0.000000 121.377901
   1073   0.000000 116.040788
   1376   0.000000  58.092510
    475   0.000000 126.403379
    884   0.000000  68.238596
   1234   0.000000  46.282332
   1870   0.000000  94.502149
    260   0.000000 110.227584
   1138   0.000000 158.824445
    750   0.000000 148.162686
    972   0.000000  52.372517
    144   0.000000  44.039654
    340   0.000000 141.972904
     36   0.000000 175.270227
   1792   0.000000 111.333152
    910   0.000000  61.299168
   1603   0.000000  62.305973
   1317   0.000000 116.434043
    565   0.000000 174.759014
    341   0.000000  61.608548
   1178   0.000000  59.209300
   1262   0.000000 124.974330
   1352   0.000000  59.522063
    529   0.000000 144.481019
   1245   0.000000 160.231934
   1224   0.000000 138.760597
    117   0.000000 172.737939
   1589   0.000000 170.721607
   1927   0.000000 179.456750
   1536   0.000000 177.667064
    243   0.000000  47.874258
    821   0.000000 126.452586
   1717   0.000000  86.887357
     93   0.000000  64.317065
   1063   0.000000 124.663560
     80   0.000000 102.108042
    869   0.000000  47.763462
    453   0.000000  71.291925
   1149   0.000000 166.619689
   1544   0.000000 115.226648
    196   0.000000 120.185536
     94   0.000000  64.652224
    774   0.000000  63.297949
    383   0.000000  88.188018
   1294   0.000000 168.376222
   1411   0.000000 110.752486
    151   0.000000  45.066632
   1203   0.000000  43.209863
    586   0.000000  55.562045
   1174   0.000000 116.544859
   1405   0.000000  61.725012
    914   0.000000 174.813498
   1039   0.000000 108.886858
   1494   0.000000 105.818951
   1323   0.000000 144.293504
    299   0.000000  64.004699
    649   0.000000 134.069562
    648   0.000000 120.418014
   1308   0.000000 177.203587
   1716   0.000000 116.520312
   1530   0.000000 132.266652
    974   0.000000 107.537863
   1119   0.000000 114.471412
    767   0.000000 165.639135
   1798   0.000000  54.641300
    458   0.000000  65.057941
   1496   0.000000  58.272327
   1796   0.000000 112.438668
    275   0.000000 165.891476
   1158   0.000000 142.713564
    976   0.000000 130.836473
   1414   0.000000 123.968087
    450   0.000000 127.280492
    485   0.000000  56.279454
   1932   0.000000 124.780304
   1054   0.000000 110.006845
   1148   0.000000 169.530903
   1251   0.000000 107.446331
     31   0.000000  58.305074
   1375   0.000000  60.331097
   1438   0.000000  67.645178
    783   0.000000  59.459037
    965   0.000000 168.176930
   1200   0.000000 140.620708
   1872   0.000000 168.418635
    182   0.000000 165.116227
   1006   0.000000  54.253527
    159   0.000000 169.720224
   1507   0.000000  58.224107
   1731   0.000000 127.583880
    390   0.000000  54.497689
    619   0.000000 163.760376
   1654   0.000000  67.534250
     33   0.000000 130.213658
   1460   0.000000  65.867537
   1419   0.000000  61.956516
      4   0.000000  98.062098
   1720   0.000000  54.166892
   1729   0.000000  69.409658
   1781   0.000000 143.455371
    926   0.000000  69.606693
   1760   0.000000  55.309217
    692   0.000000 157.683170
    646   0.000000  51.245219
   1767   0.000000 162.564729
    688   0.000000  63.668997
    930   0.000000 166.946817
   1774   0.000000  99.257333
   1043   0.000000 153.665290
   1342   0.000000  46.695632
    630   0.000000 143.139073
    440   0.000000  45.203538
     95   0.000000 138.275768
    892   0.000000 171.551188
   1841   0.000000  60.291621
    929   0.000000 111.595381
   1514   0.000000 107.223644
   1026   0.000000 172.383205
    776   0.000000  68.513221
    978   0.000000 173.998181
    452   0.000000  70.956096
    356   0.000000 168.419133
    556   0.000000  58.354746
    949   0.000000 120.619192
   1355   0.000000 154.269582
   1859   0.000000 118.423147
    713   0.000000  75.625197
   1207   0.000000  39.952799
   1347   0.000000  91.931545
    323   0.000000  52.218898
    163   0.000000  60.129145
   1477   0.000000  70.340127
   1259   0.000000 125.871524
   1919   0.000000  64.810577
   1336   0.000000 122.637859
   1471   0.000000  67.417876
   1523   0.000000 135.977423
    863   0.000000  58.722755
    842   0.000000  77.576041
    241   0.000000  88.186998
   1923   0.000000  49.027192
    874   0.000000  58.597867
   1069   0.000000 117.993863
    501   0.000000 168.183607
   1627   0.000000 151.234486
   1651   0.000000 118.670971
    126   0.000000 165.799055
    149   0.000000 161.302635
   1713   0.000000  98.038595
   1554   0.000000 123.713830
    439   0.000000  86.108591
   1215   0.000000 142.556324
    268   0.000000  56.744407
   1481   0.000000  74.950831
   1213   0.000000  73.467397
    699   0.000000  46.410992
   1684   0.000000  55.362809
    172   0.000000 109.422408
   1839   0.000000 121.257378
    772   0.000000 129.532248
   1171   0.000000  57.097618
   1247   0.000000 141.885715
    827   0.000000 139.999630
   1897   0.000000 148.302384
   1896   0.000000  98.144445
   1030   0.000000 123.264360
   1188   0.000000  58.161851
    550   0.000000 159.609572
   1099   0.000000  91.682141
   1585   0.000000 112.485330
    888   0.000000 178.487948
    835   0.000000  75.023495
   1894   0.000000  56.752308
     25   0.000000 159.395137
    224   0.000000 173.712457
   1598   0.000000  50.907413
    444   0.000000  74.037007
   1893   0.000000 106.910247
    597   0.000000  57.491556
    817   0.000000  62.608297
   1005   0.000000  57.302702
   1046   0.000000  55.521829
    881   0.000000 169.671369
   1144   0.000000  62.382043
   1340   0.000000  45.235913
   1392   0.000000  63.349463
    176   0.000000  45.273911
   1614   0.000000  45.865055
    460   0.000000 141.480250
    983   0.000000 112.026581
   1822   0.000000  50.048394
   1725   0.000000  94.843294
   1679   0.000000  64.219033
   1436   0.000000  74.701267
   1095   0.000000 124.096981
    928   0.000000 131.327713
    365   0.000000 129.713327
    557   0.000000 107.073195
   1469   0.000000 168.455877
    553   0.000000 162.204078
   1502   0.000000 117.068911
    569   0.000000 114.459638
    736   0.000000 135.995086
    407   0.000000 166.013126
   1623   0.000000 152.887936
    725   0.000000 114.962829
   1154   0.000000 142.983764
   1709   0.000000 115.111201
   1835   0.000000 118.683251
    272   0.000000 171.794269
    362   0.000000 114.560248
    184   0.000000 114.329009
    739   0.000000  67.627295
    975   0.000000 162.627041
    793   0.000000 139.375210
    102   0.000000  66.032190
   1036   0.000000  58.173050
    508   0.000000  52.504028
   1198   0.000000  57.458047
    464   0.000000  60.489356
   1765   0.000000 111.868347
   1462   0.000000 120.374639
   1312   0.000000 108.147462
    981   0.000000  55.165346
   1164   0.000000 120.105863
    756   0.000000 179.613033
    109   0.000000 179.392241
   1431   0.000000  64.217486
    660   0.000000 125.044514
   1079   0.000000 176.856538
    636   0.000000 107.707492
   1183   0.000000  58.334826
   1553   0.000000 127.452158
   1890   0.000000 105.307670
   1214   0.000000  74.362918
   1889   0.000000 155.465608
   1857   0.000000 179.454113
   1590   0.000000 124.605306
    186   0.000000 169.338370
    254   0.000000 156.460292
   1808   0.000000  57.293620
   1433   0.000000 117.566057
    535   0.000000  47.082520
    231   0.000000 143.232810
   1511   0.000000 121.540835
    911   0.000000  56.430408
   1928   0.000000 118.419304
    288   0.000000  55.376061
    515   0.000000 125.993176
    847   0.000000 150.131388
   1559   0.000000 110.294759
    512   0.000000 170.529054
    192   0.000000  61.744790
   1219   0.000000  73.784376
    521   0.000000 111.016699
   1075   0.000000 113.689906
    637   0.000000  44.609636
    685   0.000000 137.577632
   1600   0.000000 115.567172
   1813   0.000000 138.664986
    401   0.000000 134.288693
    991   0.000000 154.540663
   1037   0.000000  44.778432
   1316   0.000000 104.514785
    145   0.000000 139.420703
    380   0.000000  59.723356
    733   0.000000  68.037104
    826   0.000000 134.997641
    979   0.000000 118.909003
    876   0.000000  54.093850
   1432   0.000000 122.560904
   1253   0.000000  49.563980
   1642   0.000000 156.896674
   1019   0.000000  59.059150
     85   0.000000 136.913373
   1153   0.000000  68.611695
   1750   0.000000 117.967426
    795   0.000000 151.010723
   1286   0.000000 101.661078
   1695   0.000000 119.771307
   1401   0.000000  67.758644
   1257   0.000000 115.024324
    370   0.000000  67.345242
     97   0.000000  72.243579
    391   0.000000  98.650703
   1434   0.000000  59.222639
   1443   0.000000 137.737690
    209   0.000000  74.629062
   1518   0.000000 116.920283
     74   0.000000 104.669703
   1217   0.000000 147.830314
   1752   0.000000  57.964015
    674   0.000000 136.550776
    851   0.000000  56.475226
   1668   0.000000  56.032095
    413   0.000000  65.040831
    307   0.000000 179.564012
   1771   0.000000 149.953715
   1101   0.000000 152.412227
   1010   0.000000 115.263084
   1017   0.000000 118.041486
   1617   0.000000 134.304740
    813   0.000000 169.797543
    896   0.000000  60.462994
   1833   0.000000 123.572583
   1124   0.000000  57.442247
    446   0.000000 130.025574
    478   0.000000  57.088474
   1543   0.000000  55.972466
    235   0.000000  63.566319
    131   0.000000 136.336203
   1290   0.000000 116.465583
    191   0.000000 114.219207
    690   0.000000  94.804550
   1661   0.000000  60.339939
    984   0.000000  56.937404
   1157   0.000000  75.958036
     12   0.000000  41.975444
   1626   0.000000 118.672379
   1297   0.000000 102.487593
    248   0.000000 136.061256
    931   0.000000 122.678940
   1327   0.000000 149.483553
   1596   0.000000  64.673087
   1463   0.000000  54.767864
   1915   0.000000 131.689952
    121   0.000000  65.143329
   1587   0.000000 115.305654
    185   0.000000  50.511841
    633   0.000000 156.493095
    642   0.000000  44.554193
   1824   0.000000  71.613023
     19   0.000000  42.741334
     54   0.000000  97.464695
   1749   0.000000  59.097228
   1422   0.000000  68.424449
    118   0.000000 118.266105
   1475   0.000000  64.518304
    200   0.000000  61.391798
   1269   0.000000  60.507802
    167   0.000000  90.527968
    905   0.000000 173.405297
    712   0.000000 133.125045
   1201   0.000000 118.873603
   1633   0.000000  51.930238
   1000   0.000000 100.299098
   1691   0.000000  63.121715
   1933   0.000000  62.123946
    840   0.000000  66.731823
    314   0.000000 110.995610
    421   0.000000  89.494799
   1900   0.000000  50.157939
     17   0.000000  87.078045
   1567   0.000000  66.644361
   1492   0.000000 167.283073
   1125   0.000000 116.695597
   1885   0.000000 152.679812
   1884   0.000000 157.162249
    326   0.000000  72.646379
   1610   0.000000  66.224364
    982   0.000000 110.254524
   1751   0.000000 116.834213
    561   0.000000  60.299376
    671   0.000000 110.044667
   1027   0.000000 116.904540
   1212   0.000000  51.051808
   1586   0.000000 177.158417
     59   0.000000 132.699845
    610   0.000000  46.658162
   1805   0.000000  57.797367
     58   0.000000  69.907882
   1866   0.000000 123.451164
   1208   0.000000 140.458487
    519   0.000000  53.600960
    130   0.000000  52.453577
   1031   0.000000 178.143036
    654   0.000000  79.760197
    373   0.000000  52.032245
   1535   0.000000 117.576543
    534   0.000000 141.683117
    942   0.000000  57.784191
    632   0.000000 111.883459
    663   0.000000  60.034578
    800   0.000000 105.716383
   1398   0.000000 173.953795
   1362   0.000000 120.605676
   1156   0.000000 135.637423
     90   0.000000 157.418522
   1527   0.000000  53.229509
    227   0.000000 109.524898
    752   0.000000 144.741610
   1260   0.000000  67.300507
   1653   0.000000 119.763603
    766   0.000000  64.828616
   1439   0.000000 133.110934
   1619   0.000000  92.081937
   1408   0.000000 115.879389
    252   0.000000  93.616025
   1801   0.000000  59.005773
     92   0.000000  92.075620
    734   0.000000  68.367791
    309   0.000000  60.287222
    779   0.000000 119.376152
   1330   0.000000 100.926921
   1459   0.000000  54.345847
    922   0.000000  59.800846
    572   0.000000  58.803284
   1351   0.000000 146.208355
    799   0.000000  63.692676
    208   0.000000 146.111729
   1854   0.000000  70.847099
    797   0.000000 135.640956
   1058   0.000000  54.463583
    998   0.000000  42.996396
    987   0.000000  54.241565
   1231   0.000000  76.711741
    171   0.000000 154.696319
    212   0.000000  71.475731
    395   0.000000  91.478886
    680   0.000000 155.412273
   1712   0.000000 142.463360
    156   0.000000 119.405807
    339   0.000000 113.117282
    854   0.000000 115.197981
    755   0.000000 114.567593
    781   0.000000 178.266957
   1547   0.000000 111.255013
   1526   0.000000  68.864109
   1910   0.000000 140.711542
   1452   0.000000 177.929112
    280   0.000000  65.218640
    319   0.000000 118.365798
    140   0.000000  62.360031
    647   0.000000  73.951944
   1895   0.000000  52.567678
     47   0.000000 159.495373
   1104   0.000000 156.796984
   1722   0.000000 146.850204
    153   0.000000  97.792478
   1094   0.000000 170.052801
    941   0.000000  44.260428
    142   0.000000 151.352257
    128   0.000000 115.519355
   1683   0.000000 122.821254
   1583   0.000000  57.069377
   1892   0.000000 152.487014
   1240   0.000000 147.976454
     89   0.000000 138.264413
    197   0.000000 178.422666
    321   0.000000 168.987822
   1181   0.000000 117.371151
     84   0.000000  71.570471
     18   0.000000 155.775599
   1368   0.000000 109.483200
    378   0.000000 121.279138
   1724   0.000000  50.418529
    388   0.000000 152.677547
   1088   0.000000 115.301005
     91   0.000000 156.392685
   1777   0.000000 139.821515
    691   0.000000 119.438488
    308   0.000000 118.487367
    995   0.000000 100.188322
    489   0.000000 103.507310
   1318   0.000000  61.702114
    495   0.000000 101.078004
   1815   0.000000  77.240612
   1415   0.000000 172.764056
   1126   0.000000  59.253350
   1697   0.000000  60.119197
    973   0.000000 140.435555
    673   0.000000  53.196647
    218   0.000000  87.800317
    555   0.000000 160.982229
    759   0.000000  65.045440
   1056   0.000000 162.782835
   1478   0.000000 151.294544
   1732   0.000000 177.508375
   1864   0.000000  62.420198
     63   0.000000 140.204090
    448   0.000000 161.763412
   1329   0.000000  82.324279
   1632   0.000000  45.728933
   1876   0.000000 154.645075
   1059   0.000000 169.666793
    771   0.000000 113.207931
   1199   0.000000 100.667910
   1067   0.000000  66.032056
    541   0.000000  50.245861
   1423   0.000000 109.792007
   1540   0.000000 122.393043
   1538   0.000000  55.274021
   1555   0.000000  61.348729
   1899   0.000000  95.734705
   1309   0.000000 128.064483
    891   0.000000 121.031304
   1012   0.000000  63.790611
    379   0.000000  58.271472
    746   0.000000 163.940954
    811   0.000000  56.109695
   1762   0.000000 100.188823
   1783   0.000000  74.133990
   1888   0.000000 158.957625
   1102   0.000000  53.605507
    242   0.000000  45.741767
    204   0.000000 143.615760
    239   0.000000 130.363618
    818   0.000000 134.092762
   1202   0.000000 169.925411
   1622   0.000000 179.478378
   1680   0.000000 113.965031
    977   0.000000  61.971600
    245   0.000000 157.797941
   1569   0.000000 121.600047
   1141   0.000000  54.290687
    441   0.000000  91.921225
   1802   0.000000 129.351397
    670   0.000000 166.601203
   1228   0.000000 147.461815
   1800   0.000000  71.554030
    656   0.000000 141.400138
    173   0.000000  58.635190
    945   0.000000 164.879620
   1465   0.000000 107.689181
    152   0.000000 145.213144
   1040   0.000000 131.038003
   1763   0.000000 107.255512
   1666   0.000000 163.655559
    552   0.000000  59.576594
   1789   0.000000 171.057645
    255   0.000000 150.301757
   1745   0.000000  58.767783
    298   0.000000  57.014954
    477   0.000000  53.722178
    698   0.000000 142.196566
    573   0.000000  61.171971
    571   0.000000 179.737933
    952   0.000000 137.336189
    635   0.000000 158.952711
   1845   0.000000  67.171346
      3   0.000000 142.398810
    607   0.000000  97.205522
    284   0.000000 133.502471
   1209   0.000000  89.406679
   1793   0.000000  55.262927
    683   0.000000  65.061343
   1372   0.000000 109.388720
   1319   0.000000  54.731930
     69   0.000000 156.354826
   1428   0.000000 172.540922
   1132   0.000000 138.437326
   1128   0.000000  67.881657
    137   0.000000 140.665765
    232   0.000000  79.666491
   1790   0.000000  59.724493
    524   0.000000 161.918021
    393   0.000000 152.824764
   1581   0.000000  62.819702
    256   0.000000 166.913316
    386   0.000000 142.685707
   1121   0.000000 178.084090
    577   0.000000 138.731530
    103   0.000000 127.808376
    862   0.000000 168.601756
   1470   0.000000 175.142502
    177   0.000000  96.061129
    850   0.000000  48.955404
   1232   0.000000  68.919641
   1658   0.000000  59.651214
   1748   0.000000 175.931441
   1860   0.000000 178.991173
    270   0.000000  72.145476
    893   0.000000  55.986725
   1772   0.000000 152.555665
   1702   0.000000 118.492593
   1180   0.000000 177.423510
    155   0.000000  50.314417
   1458   0.000000 120.213384
    431   0.000000  46.061036
   1814   0.000000 140.462937
   1690   0.000000 120.032012
   1794   0.000000  56.070225
   1696   0.000000  58.268092
    337   0.000000  51.508734
    932   0.000000  61.721020
    662   0.000000  63.404572
    461   0.000000 146.307945
   1051   0.000000  60.305613
   1052   0.000000  55.543262
   1616   0.000000  88.575807
   1707   0.000000 118.387290
   1166   0.000000 173.220936
    347   0.000000  84.431526
   1044   0.000000  86.259571
   1444   0.000000  72.271933
   1186   0.000000 179.492385
    166   0.000000  45.254057
    424   0.000000  40.177970
   1625   0.000000 164.401312
   1733   0.000000 171.564541
    139   0.000000 142.288041
   1597   0.000000  52.127851
    741   0.000000 160.552514
   1416   0.000000  66.684362
     81   0.000000 159.733513
   1066   0.000000  62.427220
   1360   0.000000  56.055086
   1935   0.000000 176.903115
    530   0.000000 165.884222
    141   0.000000  71.424247
    719   0.000000  51.200734
   1487   0.000000 127.851369
    815   0.000000 176.118596
   1447   0.000000  55.651500
    962   0.000000  56.143018
    986   0.000000  51.017488
    960   0.000000 170.855436
   1083   0.000000  53.641979
    956   0.000000  50.666851
    993   0.000000  47.681395
    820   0.000000  61.107570
    824   0.000000  65.345016
   1728   0.000000  44.424765
   1780   0.000000  68.756631
   1050   0.000000  59.769526
    917   0.000000  58.901045
   1377   0.000000  59.862080
    183   0.000000 164.840850
   1272   0.000000 163.519851
   1645   0.000000 100.880076
   1883   0.000000 111.585483
    229   0.000000 125.248629
    940   0.000000  55.351436
    116   0.000000  54.471834
    903   0.000000 178.217550
   1134   0.000000 117.028916
    262   0.000000 115.589392
   1130   0.000000 172.415415
   1394   0.000000 131.108107
   1038   0.000000  53.365029
    203   0.000000 144.901573
    831   0.000000  71.160961
     23   0.000000  74.838854
   1677   0.000000  53.024168
    481   0.000000 105.887904
   1821   0.000000 135.589663
   1665   0.000000  87.636852
    895   0.000000  67.417508
    769   0.000000 179.442230
   1473   0.000000 117.439622
   1210   0.000000 100.505688
   1047   0.000000 175.596968
   1926   0.000000  60.102722
    707   0.000000  86.427075
   1028   0.000000  61.238496
   1241   0.000000  55.156774
   1482   0.000000 146.779803
   1629   0.000000  88.439684
   1736   0.000000 113.390319
    709   0.000000  79.008446
   1008   0.000000 126.695430
      9   0.000000 141.784759
    127   0.000000 110.108189
   1739   0.000000  61.764346
    872   0.000000 111.073502
   1524   0.000000 146.638089
   1400   0.000000 172.483253
    782   0.000000 120.113748
    503   0.000000 158.867275
    355   0.000000  61.867540
   1809   0.000000 114.349209
    551   0.000000 139.441177
    435   0.000000  85.811765
   1827   0.000000 174.361942
    744   0.000000  71.314011
    601   0.000000 148.349127
   1663   0.000000  51.691432
   1042   0.000000  98.143461
    436   0.000000 177.732990
   1659   0.000000 112.362208
    837   0.000000 144.202872
   1685   0.000000 175.394821
   1077   0.000000  67.859820
     70   0.000000  51.685122
    717   0.000000  72.241312
   1599   0.000000 114.433824
    528   0.000000 104.498259
    845   0.000000 144.307865
   1371   0.000000  49.057623
   1139   0.000000  49.424183
   1784   0.000000  74.698740
    751   0.000000  57.649331
    545   0.000000 163.731489
   1195   0.000000 160.387314
    925   0.000000  57.388384
    342   0.000000  80.364356
   1692   0.000000  56.910297
   1282   0.000000  52.847910
    399   0.000000  74.486766
   1485   0.000000  71.828972
    353   0.000000 113.505451
   1608   0.000000 128.434398
    162   0.000000  47.420666
   1542   0.000000  55.282547
    398   0.000000  61.530572
    215   0.000000 140.513589
   1721   0.000000 102.425439
    213   0.000000 159.276048
    236   0.000000 140.547438
    522   0.000000 107.300184
   1237   0.000000 138.604067
    136   0.000000 139.406225
   1035   0.000000  62.025864
    168   0.000000 141.315186
   1206   0.000000 132.616542
   1078   0.000000 115.311335
    148   0.000000  53.752824
     40   0.000000 158.909800
    429   0.000000  39.750729
    954   0.000000  65.267994
    282   0.000000  50.841614
    369   0.000000 111.652264
    732   0.000000 132.334698
   1192   0.000000  58.991978
    425   0.000000  55.980450
    549   0.000000 110.891123
    125   0.000000  57.864742
    777   0.000000 121.815928
   1333   0.000000 136.435220
    730   0.000000  58.372893
    134   0.000000  78.305734
   1222   0.000000  70.191903
    764   0.000000 177.465661
    789   0.000000  60.654712
   1350   0.000000 165.216475
   1757   0.000000 108.248338
   1114   0.000000 117.818252
   1053   0.000000  72.553606
    605   0.000000 160.515185
    394   0.000000 108.671750
    202   0.000000  68.986698
    687   0.000000  68.243993
    387   0.000000 173.161279
   1085   0.000000 123.186866
   1741   0.000000 120.532129
    696   0.000000  55.769491
    279   0.000000  56.890870
     64   0.000000  63.441085
   1413   0.000000 177.436847
    494   0.000000  47.066398
    499   0.000000  54.011605
    538   0.000000  54.617837
    645   0.000000  50.934270
    465   0.000000 129.772350
   1301   0.000000 146.426748
   1111   0.000000  53.636095
    855   0.000000 177.313520
   1341   0.000000  99.512723
   1268   0.000000  56.703323
    403   0.000000 136.017337
    110   0.000000 112.486174
   1704   0.000000 178.144703
   1637   0.000000 153.588549
    621   0.000000 158.714142
   1243   0.000000 113.039125
    133   0.000000  55.690866
   1147   0.000000 129.830221
   1727   0.000000 158.982903
   1500   0.000000  53.706432
    676   0.000000  49.558791
   1532   0.000000  62.302522
    830   0.000000  69.612672
   1418   0.000000 120.551582
   1676   0.000000  55.683421
   1014   0.000000 178.167903
    909   0.000000  55.066899
    879   0.000000 116.058149
   1472   0.000000 131.936180
   1855   0.000000  62.883138
   1145   0.000000 123.020919
    581   0.000000 138.094971
   1346   0.000000  54.276809
   1397   0.000000  54.195691
    825   0.000000 154.655354
    947   0.000000  55.351199
   1786   0.000000 123.427918
   1570   0.000000  61.428233
    400   0.000000 119.500108
    916   0.000000 114.054676
    640   0.000000 140.409049
    679   0.000000  67.010095
   1289   0.000000 111.912174
    559   0.000000  53.909034
     28   0.000000  83.504828
   1261   0.000000 178.322347
   1497   0.000000 111.978759
    745   0.000000 138.409715
   1374   0.000000  68.040734
    247   0.000000  42.445231
    493   0.000000  46.869825
    194   0.000000  64.203459
     48   0.000000 139.717028
   1588   0.000000  64.574282
   1621   0.000000 134.792689
   1321   0.000000  77.134229
    829   0.000000  70.347005
   1700   0.000000 123.106929
   1448   0.000000 110.577801
   1548   0.000000  59.944100
    375   0.000000 173.311383
    250   0.000000 114.015061
   1060   0.000000 107.239573
   1325   0.000000  63.803949
   1787   0.000000 125.238930
   1435   0.000000  58.343418
   1602   0.000000 103.035265
   1227   0.000000  66.906803
    265   0.000000 170.589940
    367   0.000000  63.037643
    361   0.000000 117.951325
    708   0.000000  48.182393
    564   0.000000  64.306336
   1710   0.000000 167.118111
    297   0.000000  51.300670
   1193   0.000000 116.450025
   1007   0.000000  62.904819
   1606   0.000000 165.341238
    894   0.000000 123.404233
   1504   0.000000  63.362479
    147   0.000000 101.173490
    296   0.000000  62.619774
   1293   0.000000 141.046825
   1807   0.000000 171.642830
    788   0.000000 118.807920
    514   0.000000 167.461725
   1812   0.000000 150.383092
    511   0.000000 103.983955
   1682   0.000000 177.086745
   1211   0.000000  49.453881
    246   0.000000 104.559990
   1445   0.000000  65.465757
     44   0.000000 115.303714
    527   0.000000 160.901144
   1660   0.000000 113.050933
     76   0.000000 106.937883
    449   0.000000  55.988567
   1575   0.000000 178.802645
    132   0.000000 167.972932
    715   0.000000 147.866509
   1176   0.000000  63.429786
    860   0.000000 133.731076
   1499   0.000000 175.341238
   1468   0.000000 127.025819
    600   0.000000 154.697079
   1218   0.000000 143.976279
   1103   0.000000 140.933480
   1837   0.000000  61.495406
   1775   0.000000  71.064884
   1698   0.000000  59.638922
    119   0.000000 123.008072
    313   0.000000  56.842331
   1064   0.000000 115.203209
    595   0.000000  77.981217
   1349   0.000000 138.728438
    853   0.000000 134.923018
    887   0.000000 122.501223
   1004   0.000000 111.556228
   1239   0.000000 105.075160
   1020   0.000000 121.013194
   1359   0.000000  51.417603
   1517   0.000000 131.235521
   1446   0.000000  67.351312
    490   0.000000  56.637485
   1613   0.000000 107.022881
   1307   0.000000  66.362370
   1249   0.000000  49.420441
    273   0.000000  58.158993
    199   0.000000 125.948249
   1708   0.000000  55.576003
     39   0.000000  41.594827
   1117   0.000000 124.886744
   1911   0.000000  66.879374
    430   0.000000 135.909148
    332   0.000000 159.906040
    500   0.000000 104.855670
   1907   0.000000 141.350425
   1529   0.000000  66.800905
   1804   0.000000 130.559803
    304   0.000000  59.416336
   1169   0.000000  59.711130
    220   0.000000  62.974094
   1693   0.000000 178.624978
    377   0.000000 178.997506
    271   0.000000 137.364117
    344   0.000000 157.004864
    612   0.000000 103.981310
     56   0.000000 166.796550
   1385   0.000000 176.446680
     14   0.000000 129.053489
    451   0.000000 142.248021
   1689   0.000000 118.694222
   1703   0.000000  63.468007
   1921   0.000000 100.389042
   1451   0.000000 123.002811
    486   0.000000 142.873656
   1179   0.000000 120.283085
     65   0.000000 168.110788
   1656   0.000000 127.874189
    907   0.000000 118.338398
   1366   0.000000  60.425577
    138   0.000000 146.287712
   1254   0.000000  63.298023
   1011   0.000000 177.217129
    582   0.000000 150.689780
   1018   0.000000  56.087441
    693   0.000000 154.134437
   1604   0.000000 167.695024
    805   0.000000  63.791292
   1300   0.000000  95.849794
   1123   0.000000  61.388493
    295   0.000000 113.920444
    883   0.000000  60.125736
    762   0.000000 116.300040
   1112   0.000000  60.789087
    957   0.000000  61.367061
   1849   0.000000 141.916792
    263   0.000000  73.820668
    107   0.000000 178.650384
    963   0.000000 177.514580
    731   0.000000  64.297593
    608   0.000000 109.967825
    411   0.000000  57.302399
    533   0.000000 107.050497
    729   0.000000 126.409997
    798   0.000000  71.948280
    861   0.000000 149.097765
    283   0.000000  78.126410
   1305   0.000000  69.056125
    629   0.000000 114.681438
    384   0.000000  64.489529
    682   0.000000 157.361025
     22   0.000000  75.890309
   1373   0.000000 128.371831
   1862   0.000000 126.763672
    990   0.000000 151.205810
    217   0.000000  68.712000
    614   0.000000  54.732832
    700   0.000000 167.832046
   1811   0.000000  67.320457
   1280   0.000000 116.153520
   1246   0.000000  92.321735
   1628   0.000000  42.710751
     75   0.000000  52.795629
   1091   0.000000  56.827321
   1563   0.000000  56.468762
    381   0.000000 122.731022
   1574   0.000000 115.982943
    900   0.000000 179.053724
    325   0.000000 135.262025
   1108   0.000000  49.555381
    918   0.000000 128.756094
   1834   0.000000 116.897695
    675   0.000000 132.912920
    405   0.000000 164.180736
   1177   0.000000  61.948259
   1358   0.000000 107.472689
   1023   0.000000  52.552105
    985   0.000000  55.089178
    724   0.000000  54.329580
   1167   0.000000 126.646393
    157   0.000000 166.826473
    816   0.000000 104.634130
   1127   0.000000  70.555669
   1509   0.000000 122.931390
    770   0.000000  49.909981
    228   0.000000  63.804629
    306   0.000000 178.693125
     43   0.000000  85.200913
    704   0.000000 107.512280
     99   0.000000  95.295821
    749   0.000000 124.745035
    257   0.000000 109.923684
   1162   0.000000  63.638149
   1545   0.000000 121.059523
   1295   0.000000 161.662613
    434   0.000000  96.158419
     42   0.000000 142.704804
   1461   0.000000  60.766696
    794   0.000000  73.348321
    711   0.000000  68.856278
   1785   0.000000  65.514436
   1002   0.000000  52.506927
   1753   0.000000  58.870198
    568   0.000000 124.605713
   1755   0.000000 153.127944
    294   0.000000 107.379649
   1322   0.000000 133.382217
    146   0.000000  89.106286
    778   0.000000 179.969136
   1662   0.000000  52.710994
   1867   0.000000 116.665354
    742   0.000000 106.196105
   1105   0.000000 103.160889
   1832   0.000000 177.863452
   1930   0.000000 120.440527
    456   0.000000  79.056293
   1490   0.000000  61.464122
     15   0.000000 113.800156
    792   0.000000  75.682533
   1133   0.000000 166.453099
   1479   0.000000 136.876485
   1129   0.000000 122.991232
   1378   0.000000 123.691240
   1221   0.000000 138.385310
    765   0.000000 115.729154
     82   0.000000 153.982116
   1032   0.000000  61.658050
   1072   0.000000 175.974081
   1636   0.000000 152.737681
   1339   0.000000  68.069461
   1311   0.000000 135.418495
    423   0.000000  79.928698
   1455   0.000000  54.926301
    420   0.000000 147.122600
   1917   0.000000 178.404171
    856   0.000000 105.430630
    414   0.000000  80.701013
    754   0.000000 115.492941
   1842   0.000000  58.563965
    999   0.000000 154.552625
   1276   0.000000 135.972348
    300   0.000000 116.431289
   1292   0.000000  92.158401
    219   0.000000 150.774412
    966   0.000000  65.480668
   1146   0.000000  63.550090
    216   0.000000 131.686094
    661   0.000000  61.639941
    513   0.000000  62.094834
   1525   0.000000 144.497802
   1062   0.000000  62.236340
    330   0.000000  98.297492
    968   0.000000 126.342402
    193   0.000000 125.595256
    510   0.000000 125.572604
    122   0.000000  71.192873
    576   0.000000  65.700385
    609   0.000000  63.309663
    920   0.000000 172.955721
   1223   0.000000  71.853794
   1773   0.000000  53.298332
   1381   0.000000 117.954590
    305   0.000000 120.492981
    237   0.000000  66.797298
   1782   0.000000 148.832730
   1594   0.000000 124.704111
   1393   0.000000 109.133790
    585   0.000000  71.215250
   1646   0.000000  47.206306
    113   0.000000  66.906067
    913   0.000000 115.331453
    613   0.000000 170.613382
    598   0.000000 141.993259
    915   0.000000 117.425114
   1115   0.000000 175.260499
   1430   0.000000 178.216457
    101   0.000000  61.776187
   1647   0.000000  53.673770
   1107   0.000000 103.191477
    338   0.000000 166.518362
    349   0.000000 166.464907
    320   0.000000 106.372177
   1726   0.000000 156.592331
   1737   0.000000  58.482574
   1285   0.000000  60.001535
    838   0.000000  72.064098
    563   0.000000 125.478307
   1265   0.000000 109.154145
   1273   0.000000 108.632746
   1566   0.000000 171.755593
   1278   0.000000 169.001431
    293   0.000000  56.078979
    428   0.000000 101.183988
   1534   0.000000 174.503839
    899   0.000000 117.754556
   1681   0.000000 126.002957
   1618   0.000000  60.805999
    653   0.000000  79.772418
   1929   0.000000  64.677581
    735   0.000000  63.452400
    360   0.000000  54.913682
   1118   0.000000  57.029166
     46   0.000000 173.689110
   1057   0.000000 128.096867
   1522   0.000000  67.113315
     20   0.000000 159.887690
    606   0.000000  50.547360
   1573   0.000000  65.187820
    728   0.000000 169.292409
   1924   0.000000 116.785252
     41   0.000000  98.122201
    426   0.000000 125.989734
    112   0.000000  60.251765
   1116   0.000000 125.486151
   1715   0.000000 137.305886
    738   0.000000 131.820191
   1437   0.000000 154.617132
   1070   0.000000 177.927155
   1791   0.000000 115.794719
    658   0.000000  75.422872
   1549   0.000000 176.342070
    548   0.000000 146.481394
    644   0.000000 102.179489
    175   0.000000  55.693819
    427   0.000000 142.089040
    188   0.000000 107.593579
    996   0.000000 154.441849
   1363   0.000000  61.964870
    988   0.000000  98.698883
   1556   0.000000  62.365101
   1503   0.000000 136.970470
   1686   0.000000 118.484524
    790   0.000000  75.328189
    623   0.000000 134.653786
    198   0.000000 172.659953
   1476   0.000000  76.343712
   1175   0.000000  53.115073
   1501   0.000000 169.323098
   1194   0.000000 159.659888
    291   0.000000 162.755710
    583   0.000000 148.873884
    594   0.000000 103.516042
   1334   0.000000 167.475761
   1454   0.000000 127.725041
    416   0.000000 170.195811
   1769   0.000000 156.747953
   1846   0.000000  74.745446
   1357   0.000000 102.851979
    251   0.000000 167.253012
    948   0.000000 169.865862
   1640   0.000000 155.332080
   1365   0.000000 130.005604
   1513   0.000000 173.751883
    780   0.000000 128.430336
    302   0.000000 124.291921
      5   0.000000  55.320765
    179   0.000000 149.609862
    677   0.000000  83.354130
    639   0.000000  89.163830
     96   0.000000 159.948045
    871   0.000000  56.979652
      8   0.000000  97.448047
   1688   0.000000  61.783925
   1719   0.000000  52.006910
    164   0.000000 107.549811
    846   0.000000 134.892466
    277   0.000000 172.951124
   1353   0.000000 166.994752
   1315   0.000000  49.782855
    240   0.000000  73.750140
   1699   0.000000  58.853671
   1918   0.000000 132.568638
   1591   0.000000 179.879937
    859   0.000000 164.153385
   1407   0.000000  56.884667
    442   0.000000 132.826278
    223   0.000000 124.843543
    934   0.000000 123.446490
    641   0.000000 146.733683
    343   0.000000  72.573338
   1664   0.000000 107.723528
    560   0.000000  48.718449
   1090   0.000000 120.602014
      2   0.000000 175.625747
    497   0.000000 121.117209
     21   0.000000 117.146356
    933   0.000000 178.797927
     38   0.000000  43.606086
   1410   0.000000 177.835905
    885   0.000000 128.364332
   1880   0.000000  47.372142
   1420   0.000000  58.595066
    810   0.000000  65.163412
   1296   0.000000 151.376017
    181   0.000000 144.371932
    727   0.000000 112.702473
    994   0.000000 148.255449
   1386   0.000000 117.434833
   1730   0.000000 119.025801
   1909   0.000000  73.771836
    207   0.000000 146.976006
   1874   0.000000 145.256089
   1076   0.000000  59.933292
   1271   0.000000  55.784836
   1850   0.000000 140.682195
   1934   0.000000 114.779169
   1264   0.000000  52.450823
   1539   0.000000  65.465747
    997   0.000000 152.940448
   1537   0.000000 112.201317
    290   0.000000 111.455040
    412   0.000000  48.908801
   1495   0.000000  67.246761
   1844   0.000000 119.529722
    593   0.000000 178.502741
    834   0.000000 140.773634
     45   0.000000  54.516115
    890   0.000000  65.044579
    433   0.000000 178.887314
   1267   0.000000  57.673824
   1931   0.000000  58.316582
    875   0.000000 173.037801
    266   0.000000  87.026401
    143   0.000000  79.928010
     50   0.000000  60.787599
   1578   0.000000 119.882788
     27   0.000000 141.809902
    483   0.000000 120.648069
    843   0.000000 158.375711
    806   0.000000 127.073033
    222   0.000000  61.038914
   1768   0.000000  98.177938
    584   0.000000  77.658634
   1356   0.000000  46.796893
   1229   0.000000 143.618544
    567   0.000000 174.222316
    802   0.000000 169.507675
   1403   0.000000 119.758103
    950   0.000000 157.395817
   1440   0.000000  79.915865
    303   0.000000 121.019652
    351   0.000000  82.033381
    335   0.000000  63.372749
   1332   0.000000 155.495319
    763   0.000000 114.167711
    432   0.000000 137.982262
    523   0.000000 158.099219
    469   0.000000  69.282994
   1426   0.000000 123.241592
   1852   0.000000  77.401013
   1601   0.000000 179.341811
      6   0.000000  61.825591
    547   0.000000  52.536377
    374   0.000000 126.965261
    336   0.000000 143.737105
   1417   0.000000 125.279428
     77   0.000000 153.222255
   1595   0.000000  60.031024
    882   0.000000  61.964299
   1519   0.000000  50.392045
    720   0.000000 105.530314
    665   0.000000 120.520455
     61   0.000000  69.331855
    970   0.000000  62.296835
   1025   0.000000 114.210155
   1429   0.000000 114.197504
   1252   0.000000  57.882351
   1152   0.000000  67.025728
    955   0.000000  69.514946
     72   0.000000  96.707291
     60   0.000000 132.123817
   1916   0.000000 127.042320
    396   0.000000  47.325872
   1087   0.000000  58.473684
   1190   0.000000 122.345764
    804   0.000000 166.202115
    686   0.000000  69.333639
   1024   0.000000 125.590931
   1335   0.000000  54.568398
    419   0.000000 124.763358
   1412   0.000000  62.011571
    980   0.000000 167.191928
    748   0.000000  67.095704
    409   0.000000 108.710727
    230   0.000000  61.444000
   1863   0.000000  55.540009
     88   0.000000  65.342902
    445   0.000000  87.726405
     26   0.000000 150.729163
    812   0.000000 118.717992
    902   0.000000  65.416384
   1338   0.000000  69.886380
    214   0.000000 137.749858
     98   0.000000 157.072007
    616   0.000000  56.392186
   1810   0.000000  73.142480
     16   0.000000  44.336711
    544   0.000000 147.550062
    170   0.000000 104.355805
    487   0.000000 170.256520
   1379   0.000000 177.296913
    258   0.000000  56.685732
   1467   0.000000 115.534560
    150   0.000000  95.381049
    664   0.000000  53.369979
   1029   0.000000 178.562590
   1137   0.000000 104.533758
    877   0.000000 175.703255
    221   0.000000  64.187558
    539   0.000000  39.982760
   1453   0.000000  61.857504
     62   0.000000  62.791962
   1761   0.000000  56.559130
    833   0.000000 143.225059
   1313   0.000000 162.879392
    264   0.000000 157.384207
   1851   0.000000  69.835095
   1270   0.000000 135.213734
    329   0.000000  46.788758
    638   0.000000 168.656681
    206   0.000000  75.493339
   1150   0.000000 105.980813
    437   0.000000 141.361958
   1671   0.000000 164.988295
   1474   0.000000  52.921317
   1634   0.000000  50.514432
   1049   0.000000 120.075139
     32   0.000000  86.607572
    104   0.000000 120.636044
   1577   0.000000  57.063086
    471   0.000000 138.597899
   1266   0.000000 114.377146
   1541   0.000000  56.927296
   1868   0.000000  61.030966
   1901   0.000000  73.793599
   1486   0.000000  66.387247
    848   0.000000  69.331719
   1182   0.000000 121.157559
    491   0.000000  86.594202
    935   0.000000 175.600039
   1135   0.000000  62.738229
   1131   0.000000 133.293898
   1914   0.000000 160.551988
   1546   0.000000 176.575377
     49   0.000000 101.109977
    562   0.000000 115.955730
    472   0.000000 164.313627
   1484   0.000000  66.536357
   1531   0.000000 170.806052
    703   0.000000 145.756962
   1609   0.000000 129.999004
    716   0.000000 136.510079
   1402   0.000000 129.483656
    618   0.000000 102.321956
   1886   0.000000  48.555361
   1701   0.000000 118.505781
     87   0.000000 131.011007
   1674   0.000000 108.956200
   1788   0.000000 178.690845
   1151   0.000000  60.638876
    292   0.000000 169.999424
    276   0.000000 115.049863
    364   0.000000 178.764068
   1635   0.000000 106.382243
    346   0.000000 120.961756
   1853   0.000000 148.248112
    726   0.000000 179.260423
    517   0.000000  63.898343
     71   0.000000 103.559196
   1328   0.000000  67.159275
   1865   0.000000  54.245156
    120   0.000000 179.337316
    161   0.000000 109.591079
    115   0.000000 120.355994
    498   0.000000 173.621237
    604   0.000000 114.445351
    575   0.000000 120.934649
    921   0.000000 117.189230
   1826   0.000000 174.045921
    226   0.000000 170.968899
    389   0.000000 145.976575
    454   0.000000  69.577821
   1306   0.000000 127.420732
    786   0.000000 172.110627
   1875   0.000000  73.916486
   1071   0.000000 130.269305
    466   0.000000  50.102093
   1189   0.000000  62.293405
   1387   0.000000  60.267834
    634   0.000000  56.773222
    558   0.000000 102.627483
    702   0.000000 105.740879
   1861   0.000000 116.570975
   1345   0.000000 149.547611
   1015   0.000000 119.878053
   1421   0.000000  54.817142
    599   0.000000 108.038916
   1250   0.000000  98.984421
   1847   0.000000 152.146459
   1856   0.000000 118.125689
   1766   0.000000  44.879606
    758   0.000000  64.894026
   1140   0.000000 103.714870
   1427   0.000000  54.974865
   1829   0.000000  60.020886
   1557   0.000000  53.825997
   1080   0.000000 121.501799
    334   0.000000 154.654347
     86   0.000000  66.693942
    105   0.000000  59.971715
   1878   0.000000  60.098837
   1905   0.000000 144.877739
     30   0.000000 125.766009
   1382   0.000000  65.598730
   1611   0.000000  63.774639
   1082   0.000000 115.283642
    462   0.000000  76.422309
   1920   0.000000  51.361850
   1089   0.000000  54.751796
    205   0.000000 138.394932
    939   0.000000  61.725470
   1638   0.000000 102.444670
   1650   0.000000 128.278096
   1120   0.000000 173.724763
   1263   0.000000 166.827969
   1655   0.000000 179.414817
    681   0.000000 136.343734
    787   0.000000  58.153208
    287   0.000000 119.117880
   1840   0.000000 179.821343
    938   0.000000 117.076906
   1406   0.000000  53.867818
   1758   0.000000  44.307327
    537   0.000000  94.600597
    244   0.000000 145.212426
    570   0.000000 118.565962
   1303   0.000000  99.465378
    225   0.000000 125.226472
   1891   0.000000 154.945308
   1799   0.000000  59.707909
    796   0.000000 145.296601
    723   0.000000 163.903207
   1172   0.000000 173.642477
    100   0.000000 136.895803
    278   0.000000 107.732483
   1912   0.000000  60.162946
    617   0.000000 123.024258
   1550   0.000000 121.292830
     67   0.000000  43.496799
   1399   0.000000 112.228783
   1576   0.000000 124.107677
    438   0.000000 178.029816
   1277   0.000000 169.140548
    924   0.000000 127.243433
   1639   0.000000  54.452004
   1508   0.000000 120.148327
   1820   0.000000  63.976640
   1483   0.000000 138.365329
   1881   0.000000  95.927504
   1106   0.000000 165.461013
    506   0.000000  63.327937
    482   0.000000 167.517894
   1191   0.000000  60.052360
    322   0.000000 172.519078
    505   0.000000  85.300759
    509   0.000000  63.477770
    289   0.000000 134.624516
   1258   0.000000 171.727647
    678   0.000000  90.350930
    211   0.000000  69.037858
   1055   0.000000 134.789946
    587   0.000000  58.060054
   1734   0.000000  58.174222
    316   0.000000 163.214508
    324   0.000000 114.834543
   1344   0.000000  93.492525
   1738   0.000000  54.907745
    714   0.000000 147.864724
   1291   0.000000  45.197030
   1380   0.000000 120.129913
    348   0.000000 125.856570
   1560   0.000000 128.105194
   1520   0.000000  66.528238
    311   0.000000 119.276790
    866   0.000000 152.179480
   1450   0.000000 164.923648
    622   0.000000 139.847438
   1887   0.000000 106.389947
    180   0.000000  50.787218
    566   0.000000  55.656354
    807   0.000000 130.006593
   1160   0.000000  81.649013
   1906   0.000000  77.938033
    467   0.000000 160.912745
    404   0.000000  57.969536
    286   0.000000 170.418550
    625   0.000000  61.438419
    315   0.000000  61.523467
    376   0.000000 110.303716
   1165   0.000000 123.349278
   1838   0.000000 178.974871
   1216   0.000000 147.251772
   1298   0.000000  51.910639
   1631   0.000000  62.794802
    447   0.000000 158.682501
   1744   0.000000 125.300776
   1795   0.000000 176.007302
   1848   0.000000 137.006442
    694   0.000000 112.062555
    747   0.000000  76.848675
    901   0.000000 121.178319
    331   0.000000 119.729604
    358   0.000000  60.812743
   1122   0.000000 120.641844
   1388   0.000000  59.011847
   1667   0.000000 143.320272
    468   0.000000 103.824271
    238   0.000000 155.886243
    822   0.000000  93.547784
    317   0.000000 134.169847
    760   0.000000  51.471424
    761   0.000000  64.257730
   1310   0.000000  58.364606
    174   0.000000 106.205660
   1304   0.000000  50.576954
    620   0.000000  66.632072
   1902   0.000000 141.328662
   1441   0.000000 142.346445
   1641   0.000000 101.658310
    803   0.000000 127.210585
    536   0.000000  87.065280
   1558   0.000000  61.460834
    944   0.000000 125.605434
    518   0.000000  66.545099
   1756   0.000000  95.003709
     55   0.000000 130.411487
   1836   0.000000 120.059372
   1084   0.000000  61.545203
    626   0.000000  57.908216
    768   0.000000 131.062916
   1551   0.000000 171.199113
   1828   0.000000 114.341056
   1564   0.000000 178.068809
    951   0.000000  67.821243
    908   0.000000 116.366066
    870   0.000000  62.115539
   1571   0.000000  60.171814
   1168   0.000000 176.255989
   1582   0.000000  58.236277
    178   0.000000  99.098020
     66   0.000000 116.236714
   1747   0.000000 116.731798
   1648   0.000000  60.743846
    310   0.000000  61.076645
    684   0.000000 133.305336
   1390   0.000000  57.166999
   1110   0.000000 115.905632
    602   0.000000  51.135688
   1284   0.000000  56.464048
   1235   0.000000  89.183626
    611   0.000000  47.589124
   1302   0.000000  48.888424
   1255   0.000000  62.573501
    123   0.000000 126.883739
    958   0.000000 106.809869
    554   0.000000 113.485629
   1491   0.000000 125.470166
    580   0.000000  73.031146
    839   0.000000  72.138774
   1275   0.000000 116.292638
   1242   0.000000 162.603105
   1584   0.000000 122.810559
   1288   0.000000 162.489128
    832   0.000000 144.636167
   1652   0.000000 171.381965
    858   0.000000  85.967614
    710   0.000000 154.633643
    828   0.000000  69.652625
    801   0.000000  60.485733
    261   0.000000  53.237951
    886   0.000000  57.456644
    844   0.000000  65.560747
    422   0.000000  57.627801
   1163   0.000000  63.008245
    532   0.000000 147.033257
   1187   0.000000 118.214210
   1562   0.000000 115.286831
   1706   0.000000  59.652110
    757   0.000000 129.939465
   1281   0.000000 107.735015
   1196   0.000000  59.881625
   1061   0.000000 177.439549
   1220   0.000000  68.193407
    363   0.000000 115.726425
    382   0.000000  63.007666
     79   0.000000 148.392413
   1512   0.000000  56.831599
   1830   0.000000  62.077177
   1367   0.000000 122.144969
    488   0.000000 169.898488
    408   0.000000  59.801927
   1204   0.000000  83.162662
   1831   0.000000  56.606074
    743   0.000000  54.356409
   1003   0.000000 106.760454
   1882   0.000000  59.017805
   1925   0.000000  67.758060
    233   0.000000  76.219752
   1424   0.000000 132.641936
   1746   0.000000 175.601996
   1903   0.000000 151.731632
    722   0.000000 128.059689
     35   0.000000 114.482629
    823   0.000000 163.894789
    773   0.000000  66.234299
   1369   0.000000 169.814297
    108   0.000000  60.384279
    543   0.000000 109.822455
    359   0.000000 175.372991
    590   0.000000 113.622099
    964   0.000000 120.188585
    989   0.000000  97.237962
    267   0.000000  83.563539
   1093   0.000000 179.075698
   1404   0.000000  58.033091
   1904   0.000000  67.556826
   1877   0.000000  71.339603
     73   0.000000  50.422920
   1136   0.000000  55.109576
   1754   0.000000 151.562839
    327   0.000000  62.615645
   1670   0.000000 111.964127
      1   0.000000 120.153143
    190   0.000000 126.458172
    652   0.000000 105.512424
   1644   0.000000 155.897020
    397   0.000000  44.153014
    868   0.000000 109.879001
    615   0.000000 116.171251
   1086   0.000000  61.641663
   1764   0.000000 153.487155
    350   0.000000 149.711904
    667   0.000000 170.079245
    906   0.000000  57.039230
    443   0.000000  40.905052
    502   0.000000 139.312365
   1109   0.000000  62.269536
    841   0.000000 132.292570
   1425   0.000000 169.014646
    333   0.000000 103.145613
    259   0.000000  56.989632
    135   0.000000  67.981978
   1449   0.000000 129.208815
    507   0.000000 115.831965
   1354   0.000000 110.939666
   1843   0.000000  60.965757
    269   0.000000 114.903400
    526   0.000000  57.415739
   1678   0.000000  58.602222
    819   0.000000  71.484465
    655   0.000000 155.195290
    878   0.000000 115.577519
   1230   0.000000 145.631382
   1001   0.000000 164.063155
   1823   0.000000 110.069281
   1673   0.000000  55.932032
    651   0.000000  60.117617
    650   0.000000 165.630042
    158   0.000000  59.276662
    111   0.000000  58.014340
   1274   0.000000  74.705932
   1383   0.000000 124.610577
    210   0.000000  71.482668
   1592   0.000000  55.415953
     10   0.000000 175.473908
   1457   0.000000 109.272148
   1607   0.000000  64.659759
    589   0.000000 161.576096
   1343   0.000000 159.034786
    873   0.000000 118.723603
    463   0.000000  69.885636
    596   0.000000  90.857570
   1395   0.000000 167.166881
   1515   0.000000 178.372434
    898   0.000000 125.879378
    791   0.000000 148.676510
   1705   0.000000 178.039400
    281   0.000000 116.060254
    697   0.000000  94.014173
   1225   0.000000  75.608021
    455   0.000000 134.635762
    574   0.000000  59.762678
    249   0.000000  57.025428
   1649   0.000000  59.019757
     78   0.000000  51.874074
    169   0.000000  53.843964
   1100   0.000000 153.951678
    784   0.000000  53.302707
   1389   0.000000 116.178847
   1740   0.000000  63.536430
    274   0.000000 128.889883
   1348   0.000000 113.798873
    492   0.000000 133.464027
    312   0.000000  58.200144
   1331   0.000000  66.548840
   1718   0.000000  42.462592
    809   0.000000  63.281741
   1776   0.000000  71.345755
      7   0.000000  55.472604
   1819   0.000000  70.951922
    953   0.000000 134.782940
    531   0.000000  52.432661
    889   0.000000 114.094544
   1806   0.000000 172.146577
   1528   0.000000 115.532031
   1013   0.000000 119.108753
   1097   0.000000  49.251338
   1143   0.000000 130.998267
    880   0.000000 130.202895
     51   0.000000  58.385396
   1580   0.000000 116.009535
   1615   0.000000 162.900459
    631   0.000000 165.615708
   1869   0.000000 177.696319
    578   0.000000  72.394586
    775   0.000000  59.917115
   1159   0.000000 148.404541
    967   0.000000 127.777504
   1299   0.000000  46.961371
   1185   0.000000 179.319410
    657   0.000000 159.532615
    849   0.000000  80.799669
   1480   0.000000 146.683840
   1858   0.000000  63.880533
   1669   0.000000 139.328284
   1711   0.000000  60.944309
   1226   0.000000 144.527662
   1624   0.000000  55.877578
   1561   0.000000 171.722992
    969   0.000000  64.045567
     83   0.000000  46.284371
     34   0.000000  45.012745
    328   0.000000  56.356855
   1337   0.000000 137.955840
    718   0.000000  64.268767
   1498   0.000000 111.050771
     57   0.000000 157.968301
   1743   0.000000 178.496144
    705   0.000000  59.329887
   1287   0.000000 148.622449
   1675   0.000000 108.707589
   1236   0.000000 113.949602
    542   0.000000  89.195316
    588   0.000000 120.442687
    124   0.000000  57.654612
    923   0.000000  69.855049
   1714   0.000000 170.687204
    520   0.000000  54.867523
    479   0.000000  49.608450
    285   0.000000  56.498105
   1197   0.000000 110.933433
    345   0.000000  53.283232
    721   0.000000  63.762095
   1098   0.000000 102.856846
   1244   0.000000  42.901294
   1612   0.000000  46.216882
   1630   0.000000 108.523735
    253   0.000000  99.470659
    415   0.000000 132.176387
   1672   0.000000 164.639621
   1723   0.000000 106.173803
   1770   0.000000  50.696382
   1142   0.000000  67.448178
    864   0.000000 120.838293
   1879   0.000000 131.438439
   1908   0.000000  66.939706
     11   0.000000  58.327552
    808   0.000000  66.724852
    129   0.000000 108.144443
    187   0.000000  55.119162
    371   0.000000 127.068598
   1873   0.000000  60.142925
    417   0.000000 145.741844
    154   0.000000 154.657711
    814   0.000000 121.273107
   1068   0.000000  64.237249
   1565   0.000000 117.896995
    624   0.000000  73.215366
   1898   0.000000  45.576767
   1466   0.000000  59.607942
   1041   0.000000 168.656384
    706   0.000000  38.244682
    357   0.000000 128.543224
     29   0.000000  67.460935
   1065   0.000000  52.775990
     13   0.000000  86.312155
   1825   0.000000 114.025035
    457   0.000000 148.941929
    352   0.000000  67.678524
    473   0.000000 179.874443
   1256   0.000000 130.598530
   1552   0.000000  65.087057
   1279   0.000000  61.266416
    904   0.000000 120.483283
   1742   0.000000 122.633658
    666   0.000000 106.566625
    470   0.000000 110.591449
    301   0.000000 177.507935
   1488   0.000000  59.082919
   1033   0.000000 119.831100
     53   0.000000  60.503605
    672   0.000000 173.890433
   1442   0.000000 152.187799
    867   0.000000  90.063941
   1173   0.000000 110.212691
   1922   0.000000 168.147102
    392   0.000000  61.345878
    385   0.000000 125.835407
     68   0.000000  89.781170
    628   0.000000  98.584879
    476   0.000000 110.810652
   1326   0.000000 146.128227
   1464   0.000000 172.207485
   1657   0.000000 172.702147
    971   0.000000  78.463956
   1409   0.000000 123.569029
   1579   0.000000 178.829237
    836   0.000000 147.162268
    201   0.000000  69.408234
   1816   0.000000 148.192534
   1370   0.000000 177.429454
   1871   0.000000 120.241762
   1913   0.000000 111.524796
   1113   0.000000  64.097657
   1034   0.000000 120.198914
    912   0.000000  57.624268
    579   0.000000 143.609836
    943   0.000000  99.611626
    592   0.000000 142.861859
    689   0.000000  48.393558
    372   0.000000 169.923736
    195   0.000000  52.474417
   1022   0.000000  64.352435
   1516   0.000000  64.707283
   1161   0.000000  66.755528
    852   0.000000  92.622539
    354   0.000000  52.692708
   1205   0.000000 176.331650
    959   0.000000 126.847729
   1045   0.000000 146.565184
   1184   0.000000 120.628231
     37   0.000000  56.097232
    402   0.000000 176.802507
   1735   0.000000 113.081967
   1456   0.000000 175.139685
    480   0.000000  64.010584
    368   0.000000  59.620020
   1605   0.000000 128.530337
   1533   0.000000 120.030414
    318   0.000000  54.153279
   1396   0.000000 118.287561
    927   0.000000  53.072247
   1817   0.000000 142.296451
   1391   0.000000  54.938099
   1643   0.000000 102.223250
     52   0.000000 119.172995
    366   0.000000  66.675684
   1593   0.000000 120.089040
   1797   0.000000 117.001529
    189   0.000000  65.066374
   1021   0.000000  61.954044
    737   0.000000 169.648505
   1778   0.000000 145.479745

Angles # ['angleID', 'angleType', 'atom1', 'atom2', 'atom3']

       496       496        22        36        35
      1238      1238        78        91       103
       525       525        27        38        37
       701       701        49        50        63
      1779      1779       118       128       127
       937       937        58        69        80
      1320      1320        84        96        95
      1384      1384        88       100       121
        24        24         3         2        18
      1687      1687       123       122       132
      1233      1233        78        91        79
       603       603        32        43        56
       992       992        61        73        63
      1759      1759         7       127       137
       669       669        36        48        49
      1506      1506        97       110        98
      1803      1803       119       130       139
       504       504        24        36        48
       627       627        32        45        44
      1009      1009        63        74        73
      1016      1016        65        74        73
       740       740        40        53        54
      1074      1074        77        78        89
      1092      1092        69        80        79
       936       936        58        69        70
      1364      1364        75        99       111
       659       659        46        47        60
      1155      1155        83        85        98
       753       753        66        54        76
      1248      1248        90        91        92
       546       546        15        39        27
       410       410        30        29        41
      1081      1081        80        79        91
      1283      1283        94        93       104
      1572      1572       103       115       105
       946       946        59        70        69
       540       540        14        39        15
       865       865        62        64        63
       695       695        38        50        61
      1510      1510        97       110       120
      1170      1170        74        86        98
       961       961        60        71        70
      1493      1493        96       108       107
      1489      1489        94       108       118
      1568      1568       113       114       125
       406       406        18        29        42
      1048      1048        65        76        88
      1314      1314        84        95        94
       234       234         1        17        18
       591       591        30        42        43
       418       418        29        30        42
       165       165        11        12        13
       857       857        51        64        62
       897       897        56        67        66
       516       516        38        37        49
      1361      1361        75        99        87
       668       668        36        48        47
      1694      1694         3       123       113
      1324      1324        95        96        97
      1096      1096        79        80        93
      1521      1521        98       111        99
       484       484        34        35        36
       474       474        22        34        35
       919       919        67        68        80
      1818      1818       130       131       139
       160       160        25        11       138
      1620      1620       108       118       119
      1505      1505       118       109       119
       459       459        31        33        34
       643       643        46        45        69
       785       785        56        57        68
       106       106         7         8        22
       114       114        21         8        23
      1073      1073        68        78        91
      1376      1376        75       100        88
       475       475        22        34        44
       884       884        75        65        87
      1234      1234        78        91        89
      1870      1870         6       136         7
       260       260        29        18        31
      1138      1138        82        83        86
       750       750        53        54        76
       972       972        60        72        71
       144       144         9        11        10
       340       340        26        24        36
        36        36         1         3       124
      1792      1792       130       129       137
       910       910        77        67        78
      1603      1603       107       117       118
      1317      1317        94        95        96
       565       565        28        40        64
       341       341        26        24        37
      1178      1178        65        87        75
      1262      1262        91        92       105
      1352      1352        87        98        99
       529       529        27        38        62
      1245      1245        89        91        92
      1224      1224        88        90        91
       117       117        22         8       137
      1589      1589       106       116       126
      1927      1927        12       140       122
      1536      1536       113       112       121
       243       243         2        18        19
       821       821        48        61        50
      1717      1717         4       124       125
        93        93       135         6       136
      1063      1063        76        77        89
        80        80        20         5       135
       869       869        63        64        74
       453       453        44        32        45
      1149      1149        85        84        95
      1544      1544       101       113       114
       196       196        14        13       133
        94        94         8         7        21
       774       774        66        56        67
       383       383        15        28        29
      1294      1294        93        94       108
      1411      1411        91       102       101
       151       151        10        11        25
      1203      1203        77        88        89
       586       586        29        42        30
      1174      1174        85        86        87
      1405      1405       112       101       113
       914       914        57        68        79
      1039      1039        52        76        75
      1494      1494        96       108       118
      1323      1323        84        96       109
       299       299         8        22        23
       649       649        44        46        58
       648       648        44        46        47
      1308      1308        81        95        96
      1716      1716         4       124       123
      1530      1530       100       112       122
       974       974        60        72        82
      1119      1119        72        82        84
       767       767        43        56        66
      1798      1798        11       130       138
       458       458        31        33        32
      1496      1496        96       109        97
      1796      1796        11       130       129
       275       275         6        20        33
      1158      1158        84        85        98
       976       976        61        72        71
      1414      1414        91       102       114
       450       450        33        32        45
       485       485        34        35        44
      1932      1932        13       140       139
      1054      1054        66        77        78
      1148      1148        83        84        96
      1251      1251        92        91       102
        31        31        18         2        19
      1375      1375       111        99       121
      1438      1438        92       104       105
       783       783        45        57        69
       965       965        70        71        72
      1200      1200        76        88        90
      1872      1872         6       136       127
       182       182        26        12       140
      1006      1006        83        73        86
       159       159        25        11       130
      1507      1507        97       110       109
      1731      1731       114       125       134
       390       390        29        28        41
       619       619        33        44        46
      1654      1654       111       120       121
        33        33         1         3         4
      1460      1460       115       105       116
      1419      1419       103       102       114
         4         4         3         1        16
      1720      1720       113       124       123
      1729      1729       114       125       124
      1781      1781       118       128       137
       926       926        45        69        57
      1760      1760       116       127       117
       692       692        37        50        63
       646       646        58        45        69
      1767      1767       117       127       136
       688       688        37        50        38
       930       930        45        69        80
      1774      1774       136       127       137
      1043      1043        54        76        75
      1342      1342        85        98        97
       630       630        32        45        58
       440       440        20        31        33
        95        95         8         7       127
       892       892        55        66        77
      1841      1841        13       133       140
       929       929        45        69        70
      1514      1514        98       110       120
      1026      1026        65        75       100
       776       776        43        57        56
       978       978        61        72        82
       452       452        43        32        45
       356       356        12        26        37
       556       556        28        39        40
       949       949        59        70        81
      1355      1355        97        98        99
      1859      1859         5       135       136
       713       713        39        51        40
      1207      1207        89        88        90
      1347      1347        86        98        97
       323       323        10        23        24
       163       163       130        11       139
      1477      1477        94       107       108
      1259      1259        91        92        93
      1919      1919        12       139       140
      1336      1336        96        97       110
      1471      1471       105       106       116
      1523      1523        98       111       120
       863       863        52        64        65
       842       842        50        63        73
       241       241         2        18        16
      1923      1923       131       139       132
       874       874        52        65        76
      1069      1069        67        78        89
       501       501        23        36        48
      1627      1627       117       118       119
      1651      1651       110       120       131
       126       126        10         9       137
       149       149         9        11       139
      1713      1713         3       124       134
      1554      1554       114       113       123
       439       439        20        31        32
      1215      1215        77        89        90
       268       268         5        20         6
      1481      1481       106       107       117
      1213      1213        77        89        78
       699       699        49        50        61
      1684      1684       121       122       132
       172       172        13        12        26
      1839      1839        13       133       122
       772       772        57        56        66
      1171      1171        83        86        85
      1247      1247        89        91       103
       827       827        50        61        72
      1897      1897       127       137       138
      1896      1896       127       137       129
      1030      1030        76        75       100
      1188      1188        75        87        99
       550       550        15        39        51
      1099      1099        70        81        93
      1585      1585       105       116       126
       888       888        54        66        67
       835       835        50        62        63
      1894      1894         9       137       138
        25        25         3         2        19
       224       224         1        16        29
      1598      1598       106       117       116
       444       444        31        32        33
      1893      1893         9       137       129
       597       597        30        43        42
       817       817        59        60        71
      1005      1005        74        73        86
      1046      1046        65        76        75
       881       881        74        65        76
      1144      1144        82        84        95
      1340      1340        85        98        86
      1392      1392        88       101       100
       176       176        25        12        26
      1614      1614       107       118       117
       460       460        31        33        44
       983       983        73        72        82
      1822      1822       120       132       131
      1725      1725       114       124       134
      1679      1679       112       122       123
      1436      1436        92       104        93
      1095      1095        70        80        93
       928       928        45        69        68
       365       365        27        26        37
       557       557        28        39        51
      1469      1469       104       106       117
       553       553        27        39        40
      1502      1502        97       109       119
       569       569        39        40        64
       736       736        28        53        52
       407       407        28        29        30
      1623      1623       109       118       117
       725       725        53        52        64
      1154      1154        83        85        97
      1709      1709         3       124       113
      1835      1835         3       133        13
       272       272         5        20        34
       362       362        25        26        27
       184       184        27        12       140
       739       739        40        53        52
       975       975        60        72        83
       793       793        45        58        70
       102       102       127         7       137
      1036      1036        99        75       100
       508       508        48        36        49
      1198      1198        76        88        77
       464       464        20        34        21
      1765      1765       117       127       126
      1462      1462        94       106       105
      1312      1312        82        95        96
       981       981        71        72        82
      1164      1164        73        86        85
       756       756        41        55        66
       109       109         9         8        21
      1431      1431       102       103       114
       660       660        48        47        59
      1079      1079        68        79        92
       636       636        43        45        69
      1183      1183        74        87        86
      1553      1553       112       113       124
      1890      1890         8       137       138
      1214      1214        77        89        88
      1889      1889         8       137       129
      1857      1857         5       135       126
      1590      1590       106       116       127
       186       186         1        13        12
       254       254        17        18        30
      1808      1808       131       130       139
      1433      1433       105       103       114
       535       535        39        38        51
       231       231         1        17         2
      1511      1511        98       110       109
       911       911        57        68        67
      1928      1928        12       140       133
       288       288         7        21         8
       515       515        26        37        50
       847       847        64        63        73
      1559      1559       102       114       115
       512       512        24        37        50
       192       192        12        13        27
      1219      1219        78        89        91
       521       521        26        38        39
      1075      1075        77        78        91
       637       637        44        45        46
       685       685        48        49        50
      1600      1600       106       117       127
      1813      1813       119       131       139
       401       401        16        29        41
       991       991        50        73        86
      1037      1037        52        76        54
      1316      1316        84        95       108
       145       145         9        11        12
       380       380        26        27        38
       733       733        65        52        76
       826       826        49        61        73
       979       979        61        72        83
       876       876        64        65        74
      1432      1432       102       103       115
      1253      1253       102        91       103
      1642      1642       118       119       120
      1019      1019        73        74        86
        85        85         5         6        21
      1153      1153        83        85        86
      1750      1750       125       126       136
       795       795        46        58        69
      1286      1286        81        94       104
      1695      1695         3       123       122
      1401      1401       100       101       112
      1257      1257        79        92       104
       370       370        12        27        26
        97        97         8         7       137
       391       391        29        28        53
      1434      1434       105       103       115
      1443      1443        94       104       105
       209       209        15        14        39
      1518      1518       111       110       119
        74        74        19         5        20
      1217      1217        78        89        88
      1752      1752       127       126       136
       674       674        47        48        61
       851       851        40        64        52
      1668      1668       100       121       112
       413       413        18        30        29
       307       307        23        22        34
      1771      1771       126       127       137
      1101      1101        70        81        95
      1010      1010        63        74        86
      1017      1017        65        74        86
      1617      1617       107       118       129
       813       813        47        60        72
       896       896        56        67        57
      1833      1833         1       133       123
      1124      1124        83        82        84
       446       446        31        32        44
       478       478        35        34        44
      1543      1543       101       113       112
       235       235         2        17         3
       131       131        23         9       137
      1290      1290        93        94        95
       191       191        12        13        14
       690       690        37        50        61
      1661      1661       121       120       132
       984       984        73        72        83
      1157      1157        84        85        97
        12        12        14         1        15
      1626      1626       109       118       129
      1297      1297        95        94       107
       248       248        16        18        19
       931       931        57        69        58
      1327      1327        97        96       108
      1596      1596       126       116       127
      1463      1463        94       106       107
      1915      1915        11       139       140
       121       121         8         9        23
      1587      1587       106       116       115
       185       185       139        12       140
       633       633        43        45        46
       642       642        46        45        58
      1824      1824       121       132       122
        19        19        16         1        17
        54        54         2         4         5
      1749      1749       125       126       135
      1422      1422        91       103       102
       118       118        23         8       137
      1475      1475       116       106       117
       200       200       133        13       140
      1269      1269        79        93        80
       167       167        11        12        26
       905       905        66        67        68
       712       712        38        51        64
      1201      1201        76        88       100
      1633      1633       109       119       110
      1000      1000        63        73        86
      1691      1691       132       122       140
      1933      1933       122       140       133
       840       840        50        63        62
       314       314         8        23        10
       421       421        31        30        43
      1900      1900       129       137       138
        17        17        15         1        17
      1567      1567       113       114       124
      1492      1492        95       108       118
      1125      1125        83        82        95
      1885      1885         7       137       138
      1884      1884         7       137       129
       326       326        22        23        36
      1610      1610       118       117       128
       982       982        71        72        83
      1751      1751       127       126       135
       561       561        28        40        39
       671       671        36        48        61
      1027      1027        76        75        87
      1212      1212       100        88       101
      1586      1586       105       116       127
        59        59         3         4       134
       610       610        56        43        57
      1805      1805       129       130       138
        58        58         3         4       124
      1866      1866       125       135       136
      1208      1208        89        88       100
       519       519        26        38        27
       130       130        11         9       138
      1031      1031        87        75        88
       654       654        35        47        48
       373       373        13        27        14
      1535      1535       101       112       123
       534       534        39        38        50
       942       942        58        70        69
       632       632        43        45        44
       663       663        35        48        36
       800       800        47        59        58
      1398      1398        90       101       112
      1362      1362        75        99        98
      1156      1156        84        85        86
        90        90        20         6       136
      1527      1527       100       112       101
       227       227        15        16        29
       752       752        55        54        76
      1260      1260        91        92       103
      1653      1653       111       120       119
       766       766        43        56        57
      1439      1439        92       104       106
      1619      1619       108       118       117
      1408      1408        90       102       103
       252       252        17        18        19
      1801      1801       119       130       131
        92        92        21         6       136
       734       734        28        53        40
       309       309        23        22        36
       779       779        43        57        69
      1330      1330        85        97        96
      1459      1459       106       105       116
       922       922        69        68        80
       572       572        51        40        64
      1351      1351        87        98        97
       799       799        69        58        70
       208       208        15        14        27
      1854      1854       125       134       135
       797       797        59        58        69
      1058      1058        67        77        78
       998       998        63        73        74
       987       987        50        73        63
      1231      1231        91        90       102
       171       171        13        12        25
       212       212         1        15        16
       395       395        40        28        41
       680       680        36        49        50
      1712      1712         3       124       125
       156       156        12        11       130
       339       339        25        24        37
       854       854        40        64        65
       755       755        41        55        56
       781       781        45        57        67
      1547      1547       102       113       112
      1526      1526       110       111       120
      1910      1910       130       138       137
      1452      1452       103       105       106
       280       280        31        20        33
       319       319         9        23        22
       140       140        11        10        25
       647       647        44        46        45
      1895      1895       127       137       128
        47        47        17         3       123
      1104      1104        71        81        94
      1722      1722       113       124       134
       153       153        10        11       138
      1094      1094        70        80        79
       941       941        58        70        59
       142       142        23        10        25
       128       128        11         9        23
      1683      1683       121       122       123
      1583      1583       105       116       115
      1892      1892         9       137       128
      1240      1240        79        91        90
        89        89        20         6       135
       197       197        14        13       140
       321       321         9        23        36
      1181      1181        65        87        99
        84        84         5         6        20
        18        18        15         1       133
      1368      1368        87        99       111
       378       378        14        27        38
      1724      1724       114       124       125
       388       388        29        28        39
      1088      1088        68        80        70
        91        91        21         6       135
      1777      1777       117       128       129
       691       691        37        50        62
       308       308        23        22        35
       995       995        61        73        83
       489       489        36        35        47
      1318      1318        94        95       108
       495       495        22        36        24
      1815      1815       120       131       132
      1415      1415       101       102       103
      1126      1126        84        82        95
      1697      1697         3       123       133
       973       973        60        72        73
       673       673        47        48        60
       218       218        16        15        28
       555       555        28        39        38
       759       759        56        55        66
      1056      1056        66        77        89
      1478      1478        94       107       117
      1732      1732       114       125       135
      1864      1864       125       135       126
        63        63         4         5         6
       448       448        33        32        43
      1329      1329       108        96       109
      1632      1632       128       118       129
      1876      1876         7       136       135
      1059      1059        67        77        88
       771       771        55        56        67
      1199      1199        76        88        89
      1067      1067        67        78        68
       541       541        14        39        27
      1423      1423        91       103       105
      1540      1540       121       112       123
      1538      1538       113       112       123
      1555      1555       114       113       124
      1899      1899       128       137       138
      1309      1309        81        95       108
       891       891        55        66        67
      1012      1012        64        74        65
       379       379        14        27        39
       746       746        52        54        66
       811       811        47        60        59
      1762      1762       116       127       128
      1783      1783       127       128       137
      1888      1888         8       137       128
      1102      1102        71        81        82
       242       242         2        18        17
       204       204         1        14        39
       239       239         3        17        18
       818       818        59        60        72
      1202      1202        76        88       101
      1622      1622       108       118       129
      1680      1680       112       122       132
       977       977        61        72        73
       245       245         2        18        30
      1569      1569       115       114       124
      1141      1141        85        83        86
       441       441        30        31        32
      1802      1802       119       130       138
       670       670        36        48        60
      1228      1228        89        90       101
      1800      1800       119       130       129
       656       656        35        47        60
       173       173        13        12        27
       945       945        58        70        81
      1465      1465        94       106       117
       152       152        10        11       130
      1040      1040        52        76        77
      1763      1763       116       127       136
      1666      1666        99       121       122
       552       552        27        39        38
      1789      1789       128       129       130
       255       255        17        18        31
      1745      1745       116       126       127
       298       298         8        22        21
       477       477        33        34        44
       698       698        38        50        73
       573       573        52        40        53
       571       571        51        40        53
       952       952        69        70        81
       635       635        43        45        58
      1845      1845         4       134         5
         3         3         3         1        15
       607       607        42        43        57
       284       284         6        21         8
      1209      1209        89        88       101
      1793      1793       130       129       138
       683       683        37        49        50
      1372      1372        98        99       121
      1319      1319        96        95       108
        69        69         6         5        19
      1428      1428        92       103       114
      1132      1132        73        83        82
      1128      1128        72        83        82
       137       137         9        10        25
       232       232         1        17         3
      1790      1790       128       129       137
       524       524        26        38        62
       393       393        39        28        41
      1581      1581       116       115       126
       256       256        19        18        29
       386       386        15        28        41
      1121      1121        81        82        83
       577       577        28        41        42
       103       103       136         7       137
       862       862        52        64        63
      1470      1470       105       106       107
       177       177        25        12        27
       850       850        40        64        51
      1232      1232       101        90       102
      1658      1658       119       120       131
      1748      1748       125       126       127
      1860      1860         6       135       125
       270       270         5        20        31
       893       893        56        66        67
      1772      1772       128       127       136
      1702      1702       113       123       122
      1180      1180        65        87        98
       155       155        12        11        25
      1458      1458       106       105       115
       431       431        18        31        30
      1814      1814       120       131       130
      1690      1690       132       122       133
      1794      1794       137       129       138
      1696      1696         3       123       124
       337       337        25        24        26
       932       932        57        69        68
       662       662        59        47        60
       461       461        32        33        34
      1051      1051        77        76        88
      1052      1052        66        77        67
      1616      1616       107       118       128
      1707      1707       124       123       133
      1166      1166        73        86        98
       347       347        11        25        12
      1044      1044        54        76        77
      1444      1444        94       104       106
      1186      1186        75        87        86
       166       166        11        12        25
       424       424         5        31        19
      1625      1625       109       118       128
      1733      1733       124       125       126
       139       139        11        10        24
      1597      1597       106       117       107
       741       741        41        53        52
      1416      1416       101       102       113
        81        81        31         5       134
      1066      1066        88        77        89
      1360      1360       110        98       111
      1935      1935       133       140       139
       530       530        37        38        39
       141       141        23        10        24
       719       719        40        52        53
      1487      1487        94       108        96
       815       815        48        60        71
      1447      1447        92       105       104
       962       962        60        71        72
       986       986        50        73        61
       960       960        59        71        82
      1083      1083        80        79        93
       956       956        59        71        60
       993       993        61        73        72
       820       820        48        61        49
       824       824        49        61        50
      1728      1728       125       124       134
      1780      1780       118       128       129
      1050      1050        75        76        88
       917       917        67        68        78
      1377      1377        75       100        99
       183       183        27        12       139
      1272      1272        79        93        94
      1645      1645       120       119       130
      1883      1883         7       137       128
       229       229        17        16        29
       940       940        70        69        80
       116       116        22         8        23
       903       903        57        67        77
      1134      1134        73        83        85
       262       262         2        19         5
      1130      1130        72        83        85
      1394      1394        88       101       112
      1038      1038        52        76        65
       203       203         1        14        27
       831       831        38        62        51
        23        23         3         2        17
      1677      1677       122       121       132
       481       481        22        35        44
      1821      1821       120       132       122
      1665      1665        99       121       120
       895       895        67        66        77
       769       769        55        56        57
      1473      1473       107       106       116
      1210      1210        90        88       100
      1047      1047        65        76        77
      1926      1926        12       140        13
       707       707        62        50        73
      1028      1028        76        75        88
      1241      1241        79        91        92
      1482      1482       106       107       118
      1629      1629       117       118       129
      1736      1736       126       125       134
       709       709        38        51        39
      1008      1008        63        74        65
         9         9        13         1        16
       127       127        10         9       138
      1739      1739       115       126       116
       872       872        52        65        74
      1524      1524        99       111       110
      1400      1400       100       101       102
       782       782        45        57        68
       503       503        24        36        35
       355       355        12        26        27
      1809      1809       138       130       139
       551       551        27        39        28
       435       435        19        31        30
      1827      1827       122       132       131
       744       744        52        54        53
       601       601        32        43        42
      1663      1663        99       121       100
      1042      1042        54        76        65
       436       436        19        31        32
      1659      1659       119       120       132
       837       837        51        62        63
      1685      1685       121       122       133
      1077      1077        68        79        80
        70        70         6         5        20
       717       717        40        51        64
      1599      1599       106       117       118
       528       528        27        38        51
       845       845        62        63        73
      1371      1371        98        99       111
      1139      1139        84        83        85
      1784      1784       129       128       137
       751       751        55        54        66
       545       545        14        39        51
      1195      1195        75        88        90
       925       925        79        68        80
       342       342        36        24        37
      1692      1692       133       122       140
      1282      1282        92        93       104
       399       399        16        29        28
      1485      1485       117       107       118
       353       353        12        26        24
      1608      1608       116       117       128
       162       162       130        11       138
      1542      1542       101       113       102
       398       398        16        29        18
       215       215        14        15        16
      1721      1721       113       124       125
       213       213         1        15        28
       236       236         2        17        16
       522       522        26        38        50
      1237      1237        78        91       102
       136       136         9        10        24
      1035      1035        88        75       100
       168       168        11        12        27
      1206      1206        77        88       101
      1078      1078        68        79        91
       148       148         9        11       138
        40        40         2         3       123
       429       429        18        31        19
       954       954        71        70        81
       282       282        33        20        34
       369       369        12        27        14
       732       732        64        52        76
      1192      1192        75        88        76
       425       425         5        31        20
       549       549        15        39        40
       125       125        10         9        23
       777       777        43        57        67
      1333      1333        85        97       110
       730       730        54        52        76
       134       134         9        10        11
      1222      1222        90        89        91
       764       764        42        56        67
       789       789        68        57        69
      1350      1350        86        98       111
      1757      1757         7       127       128
      1114      1114        71        82        83
      1053      1053        66        77        76
       605       605        42        43        45
       394       394        39        28        53
       202       202         1        14        15
       687       687        50        49        61
       387       387        15        28        53
      1085      1085        91        79        93
      1741      1741       115       126       127
       696       696        38        50        62
       279       279        21        20        34
        64        64         4         5        19
      1413      1413        91       102       113
       494       494        22        36        23
       499       499        23        36        24
       538       538        50        38        62
       645       645        57        45        69
       465       465        20        34        22
      1301      1301       104        94       108
      1111      1111        94        81        95
       855       855        40        64        74
      1341      1341        85        98        87
      1268      1268       104        92       105
       403       403        18        29        28
       110       110         9         8        22
      1704      1704       113       123       133
      1637      1637       109       119       131
       621       621        34        44        45
      1243      1243        79        91       103
       133       133       137         9       138
      1147      1147        83        84        95
      1727      1727       123       124       134
      1500      1500        97       109       110
       676       676        49        48        61
      1532      1532       101       112       113
       830       830        38        62        50
      1418      1418       103       102       113
      1676      1676       120       121       132
      1014      1014        64        74        86
       909       909        68        67        78
       879       879        64        65        87
      1472      1472       105       106       117
      1855      1855         5       135         6
      1145      1145        82        84        96
       581       581        29        41        53
      1346      1346        86        98        87
      1397      1397        90       101       102
       825       825        49        61        72
       947       947        59        70        71
      1786      1786       118       129       130
      1570      1570       115       114       125
       400       400        16        29        30
       916       916        67        68        69
       640       640        44        45        69
       679       679        36        49        48
      1289      1289        81        94       108
       559       559        38        39        51
        28        28         4         2        19
      1261      1261        91        92       104
      1497      1497        96       109       110
       745       745        52        54        55
      1374      1374       100        99       121
       247       247        16        18        17
       493       493        47        35        48
       194       194        12        13       140
        48        48        17         3       124
      1588      1588       106       116       117
      1621      1621       108       118       128
      1321      1321        84        96        97
       829       829        72        61        73
      1700      1700       112       123       124
      1448      1448        92       105       106
      1548      1548       102       113       114
       375       375        13        27        38
       250       250        16        18        30
      1060      1060        67        77        89
      1325      1325        95        96       108
      1787      1787       118       129       137
      1435      1435       114       103       115
      1602      1602       107       117       116
      1227      1227        89        90        91
       265       265         5        19        18
       367       367        37        26        38
       361       361        24        26        38
       708       708        63        50        73
       564       564        28        40        53
      1710      1710         3       124       114
       297       297        22        21        34
      1193      1193        75        88        77
      1007      1007        63        74        64
      1606      1606       116       117       118
       894       894        56        66        77
      1504      1504       110       109       119
       147       147         9        11       130
       296       296        20        21        34
      1293      1293        93        94       107
      1807      1807       131       130       138
       788       788        67        57        69
       514       514        26        37        49
      1812      1812       119       131       132
       511       511        24        37        49
      1682      1682       112       122       140
      1211      1211        90        88       101
       246       246         2        18        31
      1445      1445       105       104       106
        44        44         4         3       123
       527       527        27        38        50
      1660      1660       121       120       131
        76        76        19         5       134
       449       449        33        32        44
      1575      1575       103       115       126
       132       132        23         9       138
       715       715        39        51        64
      1176      1176        87        86        98
       860       860        51        64        74
      1499      1499        96       109       119
      1468      1468       104       106       116
       600       600        30        43        57
      1218      1218        78        89        90
      1103      1103        71        81        93
      1837      1837         3       133       123
      1775      1775       117       128       118
      1698      1698       112       123       113
       119       119         8         9        10
       313       313         8        23         9
      1064      1064        78        77        88
       595       595        43        42        56
      1349      1349        86        98       110
       853       853        40        64        63
       887       887        54        66        56
      1004      1004        74        73        83
      1239      1239        79        91        89
      1020      1020        73        74        87
      1359      1359        99        98       111
      1517      1517       109       110       120
      1446      1446        92       105       103
       490       490        36        35        48
      1613      1613       107       118       109
      1307      1307        81        95        94
      1249      1249        90        91       102
       273       273         6        20        21
       199       199        27        13       140
      1708      1708         3       124         4
        39        39         2         3        17
      1117      1117        72        82        81
      1911      1911        11       139        12
       430       430        18        31        20
       332       332        10        24        37
       500       500        23        36        35
      1907      1907        11       138       137
      1529      1529       100       112       121
      1804      1804       129       130       131
       304       304        21        22        34
      1169      1169        74        86        87
       220       220        28        15        39
      1693      1693         3       123       112
       377       377        14        27        26
       271       271         5        20        33
       344       344        10        25        12
       612       612        32        44        34
        56        56         2         4       134
      1385      1385        99       100       101
        14        14        14         1        17
       451       451        43        32        44
      1689      1689       123       122       140
      1703      1703       113       123       124
      1921      1921       130       139       132
      1451      1451       103       105       104
       486       486        34        35        47
      1179      1179        65        87        86
        65        65         4         5        20
      1656      1656       111       120       132
       907       907        66        67        78
      1366      1366        87        99        98
       138       138        11        10        23
      1254      1254        79        92        91
      1011      1011        63        74        87
       582       582        29        41        55
      1018      1018        65        74        87
       693       693        37        50        73
      1604      1604       107       117       127
       805       805        58        59        70
      1300      1300       104        94       107
      1123      1123        81        82        95
       295       295        20        21        22
       883       883        75        65        76
       762       762        42        56        57
      1112      1112        71        82        72
       957       957        59        71        70
      1849      1849         5       134       124
       263       263         2        19        18
       107       107         7         8        23
       963       963        60        71        81
       731       731        64        52        65
       608       608        45        43        56
       411       411        30        29        42
       533       533        37        38        62
       729       729        54        52        65
       798       798        59        58        70
       861       861        52        64        62
       283       283         6        21         7
      1305      1305        81        95        82
       629       629        32        45        57
       384       384        15        28        39
       682       682        37        49        48
        22        22         3         2         4
      1373      1373       100        99       111
      1862      1862         6       135       134
       990       990        50        73        83
       217       217        14        15        39
       614       614        32        44        45
       700       700        49        50        62
      1811      1811       119       131       130
      1280      1280        81        93       104
      1246      1246        89        91       102
      1628      1628       117       118       128
        75        75        19         5        31
      1091      1091        69        80        70
      1563      1563       103       114       115
       381       381        26        27        39
      1574      1574       103       115       116
       900       900        56        67        78
       325       325        22        23        24
      1108      1108        82        81        95
       918       918        67        68        79
      1834      1834         1       133       140
       675       675        49        48        60
       405       405        18        29        41
      1177      1177        65        87        74
      1358      1358        99        98       110
      1023      1023        65        75        87
       985       985        82        72        83
       724       724        53        52        54
      1167      1167        74        86        83
       157       157        12        11       138
       816       816        48        60        72
      1127      1127        72        83        73
      1509      1509        97       110       119
       770       770        55        56        66
       228       228        17        16        18
       306       306        21        22        36
        43        43         4         3        17
       704       704        61        50        63
        99        99        21         7       136
       749       749        53        54        66
       257       257        19        18        30
      1162      1162        73        86        74
      1545      1545       101       113       123
      1295      1295        95        94       104
       434       434        19        31        20
        42        42         2         3       133
      1461      1461        94       106       104
       794       794        46        58        59
       711       711        38        51        62
      1785      1785       118       129       128
      1002      1002        72        73        83
      1753      1753       135       126       136
       568       568        39        40        53
      1755      1755         7       127       117
       294       294         8        21        34
      1322      1322        84        96       108
       146       146         9        11        25
       778       778        43        57        68
      1662      1662       131       120       132
      1867      1867       126       135       134
       742       742        41        53        54
      1105      1105        71        81        95
      1832      1832         1       133       122
      1930      1930        13       140       122
       456       456        20        33        34
      1490      1490        95       108        96
        15        15        14         1       133
       792       792        45        58        69
      1133      1133        73        83        84
      1479      1479        94       107       118
      1129      1129        72        83        84
      1378      1378        75       100       101
      1221      1221        88        89        91
       765       765        43        56        55
        82        82        31         5       135
      1032      1032        87        75        99
      1072      1072        68        78        89
      1636      1636       109       119       130
      1339      1339       109        97       110
      1311      1311        82        95        94
       423       423         5        31        18
      1455      1455       104       105       106
       420       420        31        30        42
      1917      1917        12       139       131
       856       856        51        64        52
       414       414        18        30        31
       754       754        41        55        54
      1842      1842       122       133       123
       999       999        63        73        83
      1276      1276        80        93        94
       300       300         8        22        34
      1292      1292        93        94       106
       219       219        16        15        39
       966       966        70        71        81
      1146      1146        83        84        85
       216       216        14        15        28
       661       661        48        47        60
       513       513        26        37        38
      1525      1525        99       111       120
      1062      1062        76        77        88
       330       330        10        24        26
       968       968        72        71        81
       193       193        12        13       133
       510       510        24        37        38
       122       122         8         9       137
       576       576        28        41        29
       609       609        45        43        57
       920       920        69        68        78
      1223      1223        88        90        89
      1773      1773       128       127       137
      1381      1381        88       100        99
       305       305        21        22        35
       237       237         2        17        18
      1782      1782       127       128       129
      1594      1594       117       116       126
      1393      1393        88       101       102
       585       585        53        41        55
      1646      1646       120       119       131
       113       113        21         8        22
       913       913        57        68        78
       613       613        32        44        35
       598       598        30        43        45
       915       915        57        68        80
      1115      1115        71        82        84
      1430      1430       102       103       105
       101       101       127         7       136
      1647      1647       130       119       131
      1107      1107        82        81        94
       338       338        25        24        36
       349       349        11        25        26
       320       320         9        23        24
      1726      1726       123       124       125
      1737      1737       126       125       135
      1285      1285        81        94        95
       838       838        51        62        64
       563       563        28        40        52
      1265      1265        93        92       105
      1273      1273        79        93       104
      1566      1566       113       114       115
      1278      1278        81        93        92
       293       293         8        21        22
       428       428         5        31        33
      1534      1534       101       112       122
       899       899        56        67        77
      1681      1681       112       122       133
      1618      1618       108       118       109
       653       653        35        47        46
      1929      1929        12       140       139
       735       735        28        53        41
       360       360        24        26        37
      1118      1118        72        82        83
        46        46         4         3       133
      1057      1057        67        77        76
      1522      1522        98       111       110
        20        20        16         1       133
       606       606        42        43        56
      1573      1573       103       115       114
       728       728        54        52        64
      1924      1924       131       139       140
        41        41         2         3       124
       426       426         5        31        30
       112       112         9         8       137
      1116      1116        71        82        95
      1715      1715         4       124       114
       738       738        40        53        41
      1437      1437        92       104        94
      1070      1070        67        78        91
      1791      1791       128       129       138
       658       658        46        47        59
      1549      1549       102       113       123
       548       548        15        39        38
       644       644        57        45        58
       175       175        13        12       140
       427       427         5        31        32
       188       188         1        13        27
       996       996        61        73        86
      1363      1363        75        99       100
       988       988        50        73        72
      1556      1556       123       113       124
      1503      1503       110       109       118
      1686      1686       121       122       140
       790       790        45        58        46
       623       623        35        44        45
       198       198        27        13       133
      1476      1476        94       107       106
      1175      1175        85        86        98
      1501      1501        97       109       118
      1194      1194        75        88        89
       291       291         7        21        34
       583       583        42        41        53
       594       594        41        42        56
      1334      1334        96        97        98
      1454      1454       103       105       116
       416       416        18        30        43
      1769      1769       126       127       128
      1846      1846         4       134       124
      1357      1357        97        98       111
       251       251        16        18        31
       948       948        59        70        80
      1640      1640       110       119       130
      1365      1365        75        99       121
      1513      1513        98       110       119
       780       780        45        57        56
       302       302         8        22        36
         5         5         3         1        17
       179       179        25        12       140
       677       677        60        48        61
       639       639        44        45        58
        96        96         8         7       136
       871       871        52        65        64
         8         8        13         1        15
      1688      1688       123       122       133
      1719      1719       113       124       114
       164       164       138        11       139
       846       846        62        63        74
       277       277        21        20        31
      1353      1353        87        98       110
      1315      1315        84        95        96
       240       240        16        17        18
      1699      1699       112       123       122
      1918      1918        12       139       132
      1591      1591       115       116       117
       859       859        51        64        65
      1407      1407        90       102       101
       442       442        30        31        33
       223       223         1        16        18
       934       934        57        69        80
       641       641        46        45        57
       343       343        10        25        11
      1664      1664        99       121       112
       560       560        40        39        51
      1090      1090        68        80        93
         2         2         3         1        14
       497       497        22        36        48
        21        21        17         1       133
       933       933        57        69        70
        38        38         2         3         4
      1410      1410        90       102       114
       885       885        76        65        87
      1880      1880         7       137         8
      1420      1420       113       102       114
       810       810        47        60        48
      1296      1296        95        94       106
       181       181        26        12       139
       727       727        53        52        76
       994       994        61        73        74
      1386      1386        99       100       112
      1730      1730       114       125       126
      1909      1909       129       138       137
       207       207        13        14        39
      1874      1874         7       136       126
      1076      1076        89        78        91
      1271      1271        79        93        92
      1850      1850         5       134       125
      1934      1934       122       140       139
      1264      1264        93        92       104
      1539      1539       121       112       122
       997       997        63        73        72
      1537      1537       113       112       122
       290       290         7        21        22
       412       412        41        29        42
      1495      1495       107       108       118
      1844      1844       123       133       140
       593       593        41        42        43
       834       834        50        62        51
        45        45         4         3       124
       890       890        55        66        56
       433       433        18        31        33
      1267      1267       103        92       105
      1931      1931        13       140       133
       875       875        52        65        87
       266       266         5        19        31
       143       143        24        10        25
        50        50       123         3       124
      1578      1578       105       115       126
        27        27         4         2        18
       483       483        22        35        48
       843       843        50        63        74
       806       806        58        59        71
       222       222         1        16        17
      1768      1768       117       127       137
       584       584        42        41        55
      1356      1356        97        98       110
      1229      1229        89        90       102
       567       567        39        40        52
       802       802        47        59        70
      1403      1403       102       101       112
       950       950        69        70        71
      1440      1440        93       104        94
       303       303        21        22        23
       351       351        12        25        26
       335       335        23        24        36
      1332      1332        85        97       109
       763       763        42        56        66
       432       432        18        31        32
       523       523        26        38        51
       469       469        21        34        22
      1426      1426        92       103       102
      1852      1852       124       134       125
      1601      1601       106       117       128
         6         6         3         1       133
       547       547        15        39        28
       374       374        13        27        26
       336       336        23        24        37
      1417      1417       101       102       114
        77        77        19         5       135
      1595      1595       117       116       127
       882       882        74        65        87
      1519      1519       111       110       120
       720       720        40        52        54
       665       665        35        48        49
        61        61         5         4       134
       970       970        81        71        82
      1025      1025        65        75        99
      1429      1429        92       103       115
      1252      1252        92        91       103
      1152      1152        83        85        84
       955       955        80        70        81
        72        72         6         5       134
        60        60         5         4       124
      1916      1916        12       139       130
       396       396        40        28        53
      1087      1087        68        80        69
      1190      1190        86        87        99
       804       804        58        59        60
       686       686        48        49        61
      1024      1024        65        75        88
      1335      1335        96        97       109
       419       419        29        30        43
      1412      1412        91       102       103
       980       980        71        72        73
       748       748        53        54        55
       409       409        28        29        42
       230       230        18        16        29
      1863      1863         6       135       136
        88        88        20         6        21
       445       445        31        32        43
        26        26         4         2        17
       812       812        47        60        71
       902       902        57        67        68
      1338      1338        98        97       110
       214       214         1        15        39
        98        98        21         7       127
       616       616        33        44        34
      1810      1810       119       131       120
        16        16        15         1        16
       544       544        14        39        40
       170       170        11        12       140
       487       487        34        35        48
      1379      1379        75       100       112
       258       258        19        18        31
      1467      1467       104       106       107
       150       150        10        11        12
       664       664        35        48        47
      1029      1029        76        75        99
      1137      1137        82        83        85
       877       877        64        65        75
       221       221         1        16        15
       539       539        51        38        62
      1453      1453       103       105       115
        62        62       124         4       134
      1761      1761       116       127       126
       833       833        38        62        64
      1313      1313        82        95       108
       264       264         2        19        31
      1851      1851         5       134       135
      1270      1270        79        93        81
       329       329        10        24        25
       638       638        44        45        57
       206       206        13        14        27
      1150      1150        85        84        96
       437       437        19        31        33
      1671      1671       100       121       132
      1474      1474       107       106       117
      1634      1634       109       119       118
      1049      1049        75        76        77
        32        32         1         3         2
       104       104         7         8         9
      1577      1577       105       115       116
       471       471        21        34        35
      1266      1266       103        92       104
      1541      1541       122       112       123
      1868      1868       126       135       136
      1901      1901         9       138        11
      1486      1486        94       108        95
       848       848        64        63        74
      1182      1182        74        87        75
       491       491        44        35        47
       935       935        58        69        68
      1135      1135        73        83        86
      1131      1131        72        83        86
      1914      1914        11       139       132
      1546      1546       101       113       124
        49        49        17         3       133
       562       562        28        40        51
       472       472        21        34        44
      1484      1484       108       107       118
      1531      1531       100       112       123
       703       703        61        50        62
      1609      1609       118       117       127
       716       716        40        51        62
      1402      1402       100       101       113
       618       618        33        44        45
      1886      1886         8       137         9
      1701      1701       112       123       133
        87        87         5         6       136
      1674      1674       112       121       132
      1788      1788       118       129       138
      1151      1151        95        84        96
       292       292         8        21        20
       276       276         6        20        34
       364       364        25        26        38
      1635      1635       109       119       120
       346       346        10        25        26
      1853      1853       124       134       135
       726       726        53        52        65
       517       517        38        37        50
        71        71         6         5        31
      1328      1328        97        96       109
      1865      1865       125       135       134
       120       120         8         9        11
       161       161        25        11       139
       115       115        21         8       137
       498       498        22        36        49
       604       604        32        43        57
       575       575        53        40        64
       921       921        69        68        79
      1826      1826       121       132       139
       226       226        15        16        18
       389       389        29        28        40
       454       454        20        33        31
      1306      1306        81        95        84
       786       786        56        57        69
      1875      1875         7       136       127
      1071      1071        68        78        77
       466       466        20        34        33
      1189      1189        86        87        98
      1387      1387        99       100       121
       634       634        43        45        57
       558       558        38        39        40
       702       702        49        50        73
      1861      1861         6       135       126
      1345      1345        85        98       111
      1015      1015        64        74        87
      1421      1421        91       103        92
       599       599        30        43        56
      1250      1250        90        91       103
      1847      1847         4       134       125
      1856      1856         5       135       125
      1766      1766       117       127       128
       758       758        54        55        66
      1140      1140        84        83        86
      1427      1427        92       103       105
      1829      1829       131       132       139
      1557      1557       102       114       103
      1080      1080        68        79        93
       334       334        23        24        26
        86        86         5         6       135
       105       105         7         8        21
      1878      1878       126       136       135
      1905      1905        11       138       129
        30        30        17         2        19
      1382      1382        88       100       101
      1611      1611       127       117       128
      1082      1082        80        79        92
       462       462        32        33        44
      1920      1920       130       139       131
      1089      1089        68        80        79
       205       205        13        14        15
       939       939        68        69        80
      1638      1638       110       119       118
      1650      1650       110       120       121
      1120      1120        72        82        95
      1263      1263        93        92       103
      1655      1655       111       120       131
       681       681        36        49        61
       787       787        67        57        68
       287       287         6        21        34
      1840      1840        13       133       123
       938       938        68        69        70
      1406      1406        90       102        91
      1758      1758         7       127       136
       537       537        50        38        51
       244       244         2        18        29
       570       570        51        40        52
      1303      1303       106        94       108
       225       225        15        16        17
      1891      1891         9       137       127
      1799      1799        11       130       139
       796       796        46        58        70
       723       723        40        52        76
      1172      1172        83        86        87
       100       100        21         7       137
       278       278        21        20        33
      1912      1912        11       139       130
       617       617        33        44        35
      1550      1550       102       113       124
        67        67         4         5       134
      1399      1399        90       101       113
      1576      1576       105       115       114
       438       438        20        31        30
      1277      1277        80        93       104
       924       924        78        68        80
      1639      1639       110       119       120
      1508      1508        97       110       111
      1820      1820       120       132       121
      1483      1483       108       107       117
      1881      1881         7       137         9
      1106      1106        82        81        93
       506       506        35        36        48
       482       482        22        35        47
      1191      1191        98        87        99
       322       322        10        23        22
       505       505        24        36        49
       509       509        24        37        26
       289       289         7        21        20
      1258      1258        79        92       105
       678       678        36        49        37
       211       211         1        15        14
      1055      1055        66        77        88
       587       587        29        42        41
      1734      1734       124       125       134
       316       316         8        23        24
       324       324        10        23        36
      1344      1344        85        98       110
      1738      1738       134       125       135
       714       714        39        51        62
      1291      1291        93        94       104
      1380      1380        75       100       121
       348       348        11        25        24
      1560      1560       102       114       124
      1520      1520       119       110       120
       311       311        34        22        36
       866       866        62        64        65
      1450      1450        92       105       116
       622       622        34        44        46
      1887      1887         8       137       127
       180       180        26        12        27
       566       566        39        40        51
       807       807        60        59        70
      1160      1160        86        85        98
      1906      1906        11       138       130
       467       467        20        34        35
       404       404        18        29        30
       286       286         6        21        22
       625       625        45        44        46
       315       315         8        23        22
       376       376        13        27        39
      1165      1165        73        86        87
      1838      1838         3       133       140
      1216      1216        77        89        91
      1298      1298        95        94       108
      1631      1631       119       118       129
       447       447        31        32        45
      1744      1744       116       126       125
      1795      1795        11       130       119
      1848      1848         4       134       135
       694       694        38        50        49
       747       747        52        54        76
       901       901        57        67        66
       331       331        10        24        36
       358       358        24        26        25
      1122      1122        81        82        84
      1388      1388       101       100       112
      1667      1667        99       121       132
       468       468        20        34        44
       238       238         3        17        16
       822       822        48        61        72
       317       317         8        23        36
       760       760        42        56        43
       761       761        42        56        55
      1310      1310        82        95        84
       174       174        13        12       139
      1304      1304       107        94       108
       620       620        34        44        35
      1902      1902         9       138       129
      1441      1441        93       104       105
      1641      1641       110       119       131
       803       803        47        59        71
       536       536        39        38        62
      1558      1558       102       114       113
       944       944        58        70        80
       518       518        49        37        50
      1756      1756         7       127       126
        55        55         2         4       124
      1836      1836         3       133       122
      1084      1084        91        79        92
       626       626        32        45        43
       768       768        43        56        67
      1551      1551       112       113       114
      1828      1828       122       132       139
      1564      1564       103       114       124
       951       951        69        70        80
       908       908        68        67        77
       870       870        65        64        74
      1571      1571       124       114       125
      1168      1168        74        86        85
      1582      1582       105       116       106
       178       178        25        12       139
        66        66         4         5        31
      1747      1747       116       126       136
      1648      1648       110       120       111
       310       310        34        22        35
       684       684        37        49        61
      1390      1390       112       100       121
      1110      1110        93        81        95
       602       602        32        43        45
      1284      1284        81        94        93
      1235      1235        78        91        90
       611       611        32        44        33
      1302      1302       106        94       107
      1255      1255        79        92        93
       123       123         8         9       138
       958       958        59        71        72
       554       554        27        39        51
      1491      1491        95       108       107
       580       580        29        41        42
       839       839        63        62        64
      1275      1275        80        93        92
      1242      1242        79        91       102
      1584      1584       105       116       117
      1288      1288        81        94       107
       832       832        38        62        63
      1652      1652       110       120       132
       858       858        51        64        63
       710       710        38        51        40
       828       828        50        61        73
       801       801        47        59        60
       261       261        30        18        31
       886       886        54        66        55
       844       844        62        63        64
       422       422        42        30        43
      1163      1163        73        86        83
       532       532        37        38        51
      1187      1187        75        87        98
      1562      1562       103       114       113
      1706      1706       122       123       133
       757       757        54        55        56
      1281      1281        92        93        94
      1196      1196        75        88       100
      1061      1061        76        77        78
      1220      1220        88        89        90
       363       363        25        26        37
       382       382        38        27        39
        79        79        20         5       134
      1512      1512        98       110       111
      1830      1830         1       133         3
      1367      1367        87        99       100
       488       488        36        35        44
       408       408        28        29        41
      1204      1204        77        88        90
      1831      1831         1       133        13
       743       743        52        53        54
      1003      1003        72        73        86
      1882      1882         7       137       127
      1925      1925       132       139       140
       233       233         1        17        16
      1424      1424        91       103       114
      1746      1746       116       126       135
      1903      1903         9       138       130
       722       722        40        52        65
        35        35         1         3       123
       823       823        48        61        73
       773       773        57        56        67
      1369      1369        87        99       121
       108       108         7         8       137
       543       543        14        39        38
       359       359        24        26        27
       590       590        30        42        41
       964       964        60        71        82
       989       989        50        73        74
       267       267        18        19        31
      1093      1093        69        80        93
      1404      1404       102       101       113
      1904      1904         9       138       137
      1877      1877       126       136       127
        73        73         6         5       135
      1136      1136        82        83        84
      1754      1754         7       127       116
       327       327        24        23        36
      1670      1670       100       121       122
         1         1         3         1        13
       190       190         1        13       140
       652       652        47        46        58
      1644      1644       118       119       131
       397       397        41        28        53
       868       868        63        64        65
       615       615        32        44        46
      1086      1086        92        79        93
      1764      1764       116       127       137
       350       350        12        25        24
       667       667        35        48        61
       906       906        66        67        77
       443       443        32        31        33
       502       502        23        36        49
      1109      1109        93        81        94
       841       841        50        63        64
      1425      1425        91       103       115
       333       333        23        24        25
       259       259        29        18        30
       135       135         9        10        23
      1449      1449        92       105       115
       507       507        35        36        49
      1354      1354        87        98       111
      1843      1843       122       133       140
       269       269         5        20        21
       526       526        27        38        39
      1678      1678       112       122       121
       819       819        71        60        72
       655       655        35        47        59
       878       878        64        65        76
      1230      1230        91        90       101
      1001      1001        72        73        74
      1823      1823       120       132       139
      1673      1673       112       121       122
       651       651        45        46        58
       650       650        45        46        47
       158       158        12        11       139
       111       111         9         8        23
      1274      1274        80        93        81
      1383      1383        88       100       112
       210       210        27        14        39
      1592      1592       115       116       126
        10        10        13         1        17
      1457      1457       104       105       116
      1607      1607       116       117       127
       589       589        29        42        56
      1343      1343        85        98        99
       873       873        52        65        75
       463       463        34        33        44
       596       596        30        43        32
      1395      1395        88       101       113
      1515      1515       109       110       111
       898       898        56        67        68
       791       791        45        58        59
      1705      1705       122       123       124
       281       281        31        20        34
       697       697        38        50        63
      1225      1225        88        90       101
       455       455        20        33        32
       574       574        52        40        64
       249       249        16        18        29
      1649      1649       110       120       119
        78        78        20         5        31
       169       169        11        12       139
      1100      1100        70        81        94
       784       784        56        57        67
      1389      1389       101       100       121
      1740      1740       115       126       125
       274       274         6        20        31
      1348      1348        86        98        99
       492       492        44        35        48
       312       312        35        22        36
      1331      1331        85        97        98
      1718      1718         4       124       134
       809       809        70        59        71
      1776      1776       117       128       127
         7         7        13         1        14
      1819      1819       132       131       139
       953       953        71        70        80
       531       531        37        38        50
       889       889        54        66        77
      1806      1806       129       130       139
      1528      1528       100       112       113
      1013      1013        64        74        73
      1097      1097        70        81        71
      1143      1143        82        84        85
       880       880        74        65        75
        51        51       123         3       133
      1580      1580       114       115       126
      1615      1615       107       118       119
       631       631        32        45        69
      1869      1869       134       135       136
       578       578        28        41        53
       775       775        43        57        45
      1159      1159        86        85        97
       967       967        70        71        82
      1299      1299       104        94       106
      1185      1185        74        87        99
       657       657        46        47        48
       849       849        73        63        74
      1480      1480       106       107       108
      1858      1858         5       135       134
      1669      1669       100       121       120
      1711      1711         3       124       123
      1226      1226        88        90       102
      1624      1624       109       118       119
      1561      1561       102       114       125
       969       969        72        71        82
        83        83       134         5       135
        34        34         1         3        17
       328       328        10        24        23
      1337      1337        98        97       109
       718       718        62        51        64
      1498      1498        96       109       118
        57        57         3         4         5
      1743      1743       115       126       136
       705       705        61        50        73
      1287      1287        81        94       106
      1675      1675       120       121       122
      1236      1236        78        91        92
       542       542        14        39        28
       588       588        29        42        43
       124       124        10         9        11
       923       923        78        68        79
      1714      1714         4       124       113
       520       520        26        38        37
       479       479        22        35        34
       285       285         6        21        20
      1197      1197        75        88       101
       345       345        10        25        24
       721       721        40        52        64
      1098      1098        70        81        82
      1244      1244        89        91        90
      1612      1612       107       118       108
      1630      1630       119       118       128
       253       253        17        18        29
       415       415        18        30        42
      1672      1672       112       121       120
      1723      1723       114       124       123
      1770      1770       126       127       136
      1142      1142        82        84        83
       864       864        52        64        74
      1879      1879       127       136       135
      1908      1908       129       138       130
        11        11        13         1       133
       808       808        60        59        71
       129       129        11         9       137
       187       187         1        13        14
       371       371        12        27        38
      1873      1873         6       136       135
       417       417        29        30        31
       154       154        10        11       139
       814       814        48        60        59
      1068      1068        67        78        77
      1565      1565       103       114       125
       624       624        35        44        46
      1898      1898       128       137       129
      1466      1466       104       106       105
      1041      1041        52        76        88
       706       706        62        50        63
       357       357        12        26        38
        29        29        17         2        18
      1065      1065        78        77        89
        13        13        14         1        16
      1825      1825       121       132       131
       457       457        20        33        44
       352       352        24        25        26
       473       473        22        34        33
      1256      1256        79        92       103
      1552      1552       112       113       123
      1279      1279        81        93        94
       904       904        57        67        78
      1742      1742       115       126       135
       666       666        35        48        60
       470       470        21        34        33
       301       301         8        22        35
      1488      1488        94       108       107
      1033      1033        87        75       100
        53        53         2         4         3
       672       672        47        48        49
      1442      1442        93       104       106
       867       867        62        64        74
      1173      1173        83        86        98
      1922      1922       130       139       140
       392       392        39        28        40
       385       385        15        28        40
        68        68         4         5       135
       628       628        32        45        46
       476       476        33        34        35
      1326      1326        95        96       109
      1464      1464        94       106       116
      1657      1657       119       120       121
       971       971        60        72        61
      1409      1409        90       102       113
      1579      1579       114       115       116
       836       836        50        62        64
       201       201         1        14        13
      1816      1816       120       131       139
      1370      1370        98        99       100
      1871      1871         6       136       126
      1913      1913        11       139       131
      1113      1113        71        82        81
      1034      1034        88        75        99
       912       912        57        68        69
       579       579        28        41        55
       943       943        58        70        71
       592       592        30        42        56
       689       689        37        50        49
       372       372        12        27        39
       195       195        14        13        27
      1022      1022        65        75        76
      1516      1516       109       110       119
      1161      1161        97        85        98
       852       852        40        64        62
       354       354        12        26        25
      1205      1205        77        88       100
       959       959        59        71        81
      1045      1045        54        76        88
      1184      1184        74        87        98
        37        37         1         3       133
       402       402        16        29        42
      1735      1735       124       125       135
      1456      1456       104       105       115
       480       480        22        35        36
       368       368        12        27        13
      1605      1605       107       117       128
      1533      1533       101       112       121
       318       318         9        23        10
      1396      1396        90       101       100
       927       927        45        69        58
      1817      1817       130       131       132
      1391      1391        88       101        90
      1643      1643       118       119       130
        52        52       124         3       133
       366       366        27        26        38
      1593      1593       115       116       127
      1797      1797        11       130       131
       189       189         1        13       133
      1021      1021        86        74        87
       737       737        28        53        54
      1778      1778       117       128       137
