LAMMPS data file.

    152 atoms
    874 bonds
   2123 angles
      0 dihedrals
      0 impropers
      1 atom types
    874 bond types
   2123 angle types
      0 dihedral types
      0 improper types
  -6.753372   6.753372 xlo xhi
  -6.753985   6.753985 ylo yhi
  -0.100000   0.100000 zlo zhi
0.0 0.0 0.0 xy xz yz

Masses # ['atom_id', 'mass']

1 1000000.0

Atoms # ['atomID', 'moleculeID', 'atomType', 'charge', 'x', 'y', 'z']

      1      1      1   0.000000   4.935850  -3.226720   0.000000
      2      1      1   0.000000  -2.796780  -6.275840   0.000000
      3      1      1   0.000000  -1.627180  -6.590040   0.000000
      4      1      1   0.000000  -3.075960   3.901470   0.000000
      5      1      1   0.000000  -4.199210   6.325820   0.000000
      6      1      1   0.000000   3.153030   0.263893   0.000000
      7      1      1   0.000000  -4.137800   5.137520   0.000000
      8      1      1   0.000000   3.876860  -5.564320   0.000000
      9      1      1   0.000000  -5.564930   5.969910   0.000000
     10      1      1   0.000000   2.937610   1.636700   0.000000
     11      1      1   0.000000   2.602110  -5.791810   0.000000
     12      1      1   0.000000   1.735670   1.607770   0.000000
     13      1      1   0.000000   6.546790   5.757930   0.000000
     14      1      1   0.000000  -4.179740  -3.790900   0.000000
     15      1      1   0.000000  -1.009720   4.810520   0.000000
     16      1      1   0.000000  -2.008850   5.701650   0.000000
     17      1      1   0.000000   0.693242   3.616540   0.000000
     18      1      1   0.000000  -1.569470   3.542310   0.000000
     19      1      1   0.000000   6.368670  -2.666620   0.000000
     20      1      1   0.000000   0.558169  -5.244960   0.000000
     21      1      1   0.000000   0.528140   4.906520   0.000000
     22      1      1   0.000000   3.692370   6.632110   0.000000
     23      1      1   0.000000  -0.522992   3.595350   0.000000
     24      1      1   0.000000  -5.408930   0.067649   0.000000
     25      1      1   0.000000  -5.080250  -5.298650   0.000000
     26      1      1   0.000000  -3.014210  -5.154770   0.000000
     27      1      1   0.000000  -6.521910  -0.247257   0.000000
     28      1      1   0.000000  -5.310140  -6.280720   0.000000
     29      1      1   0.000000   5.547530   0.550295   0.000000
     30      1      1   0.000000   4.901020  -5.754040   0.000000
     31      1      1   0.000000  -4.394370   1.214150   0.000000
     32      1      1   0.000000   6.174610  -5.361450   0.000000
     33      1      1   0.000000   5.847370   1.710880   0.000000
     34      1      1   0.000000   0.355456   1.506930   0.000000
     35      1      1   0.000000   6.198190  -3.878960   0.000000
     36      1      1   0.000000  -0.981932   2.128530   0.000000
     37      1      1   0.000000  -1.844330  -0.095343   0.000000
     38      1      1   0.000000  -1.834650  -4.192180   0.000000
     39      1      1   0.000000  -1.093920  -3.123510   0.000000
     40      1      1   0.000000   3.990330   2.317690   0.000000
     41      1      1   0.000000  -5.067650   2.285390   0.000000
     42      1      1   0.000000   4.098520  -2.035400   0.000000
     43      1      1   0.000000   2.892190   2.719630   0.000000
     44      1      1   0.000000   0.913546  -2.971440   0.000000
     45      1      1   0.000000  -4.391820  -0.768942   0.000000
     46      1      1   0.000000   0.866585  -3.975050   0.000000
     47      1      1   0.000000  -6.585290   6.751200   0.000000
     48      1      1   0.000000   3.163530  -1.150600   0.000000
     49      1      1   0.000000  -3.905150  -2.693490   0.000000
     50      1      1   0.000000  -4.324000   4.008190   0.000000
     51      1      1   0.000000  -0.541115  -4.166280   0.000000
     52      1      1   0.000000   2.023020  -3.832220   0.000000
     53      1      1   0.000000  -2.212560  -1.324610   0.000000
     54      1      1   0.000000   1.905740   6.562950   0.000000
     55      1      1   0.000000   2.955200   3.714740   0.000000
     56      1      1   0.000000  -3.172860  -0.337427   0.000000
     57      1      1   0.000000   1.605580  -5.032840   0.000000
     58      1      1   0.000000   5.244180   2.908740   0.000000
     59      1      1   0.000000  -3.136170   1.897970   0.000000
     60      1      1   0.000000  -6.531120   0.755809   0.000000
     61      1      1   0.000000   0.093290  -6.578120   0.000000
     62      1      1   0.000000  -0.916599   5.844400   0.000000
     63      1      1   0.000000  -2.921540  -2.577580   0.000000
     64      1      1   0.000000   1.015490  -1.628260   0.000000
     65      1      1   0.000000   0.466647   2.426580   0.000000
     66      1      1   0.000000   1.341830  -0.339872   0.000000
     67      1      1   0.000000  -6.511720   3.738930   0.000000
     68      1      1   0.000000   4.098400   3.510580   0.000000
     69      1      1   0.000000   4.919160  -4.432650   0.000000
     70      1      1   0.000000  -1.053370   0.840994   0.000000
     71      1      1   0.000000  -0.188253  -1.900540   0.000000
     72      1      1   0.000000  -0.028115  -0.785382   0.000000
     73      1      1   0.000000  -3.041820  -3.683390   0.000000
     74      1      1   0.000000  -3.441870  -1.452640   0.000000
     75      1      1   0.000000  -1.006190  -5.424020   0.000000
     76      1      1   0.000000  -2.045500   1.167470   0.000000
     77      1      1   0.000000   5.363740   3.842180   0.000000
     78      1      1   0.000000  -5.465080  -1.841130   0.000000
     79      1      1   0.000000  -6.186480   4.607400   0.000000
     80      1      1   0.000000  -1.290680  -1.192910   0.000000
     81      1      1   0.000000   4.860280  -2.055590   0.000000
     82      1      1   0.000000  -6.297630  -5.479830   0.000000
     83      1      1   0.000000   2.372460   5.531230   0.000000
     84      1      1   0.000000   4.553350   0.360106   0.000000
     85      1      1   0.000000   2.829730   4.660760   0.000000
     86      1      1   0.000000   2.821940  -4.922100   0.000000
     87      1      1   0.000000   6.440440   4.808040   0.000000
     88      1      1   0.000000  -1.821300  -3.058090   0.000000
     89      1      1   0.000000  -5.213440  -3.856000   0.000000
     90      1      1   0.000000  -5.297740   4.658180   0.000000
     91      1      1   0.000000   4.557240   5.570060   0.000000
     92      1      1   0.000000  -6.638920  -1.511320   0.000000
     93      1      1   0.000000   2.021430   0.370724   0.000000
     94      1      1   0.000000  -3.317140   0.819634   0.000000
     95      1      1   0.000000   1.413090   5.531090   0.000000
     96      1      1   0.000000  -1.442520  -2.046380   0.000000
     97      1      1   0.000000  -5.251120  -2.775110   0.000000
     98      1      1   0.000000  -6.408110   1.833310   0.000000
     99      1      1   0.000000   5.050340   1.799520   0.000000
    100      1      1   0.000000   5.993170  -6.595240   0.000000
    101      1      1   0.000000   1.233480  -5.964860   0.000000
    102      1      1   0.000000  -6.250660  -4.174160   0.000000
    103      1      1   0.000000   2.993460  -2.170370   0.000000
    104      1      1   0.000000   1.971700  -1.844060   0.000000
    105      1      1   0.000000   1.733120   4.683630   0.000000
    106      1      1   0.000000   5.921660  -1.565890   0.000000
    107      1      1   0.000000  -4.250940  -5.861240   0.000000
    108      1      1   0.000000  -5.486360  -0.771651   0.000000
    109      1      1   0.000000  -0.140401  -3.133080   0.000000
    110      1      1   0.000000   2.829850  -3.486740   0.000000
    111      1      1   0.000000  -6.266430  -3.686200   0.000000
    112      1      1   0.000000   3.303380   5.572910   0.000000
    113      1      1   0.000000   6.430780   2.807180   0.000000
    114      1      1   0.000000   3.835240  -4.108750   0.000000
    115      1      1   0.000000   4.471090  -0.192384   0.000000
    116      1      1   0.000000  -3.070400   2.853610   0.000000
    117      1      1   0.000000   3.974620  -3.289840   0.000000
    118      1      1   0.000000   4.312250  -1.090580   0.000000
    119      1      1   0.000000  -4.584910   3.117500   0.000000
    120      1      1   0.000000   3.668600   4.806200   0.000000
    121      1      1   0.000000  -5.480340   1.210410   0.000000
    122      1      1   0.000000  -3.556860   2.909910   0.000000
    123      1      1   0.000000   1.985790  -1.211940   0.000000
    124      1      1   0.000000  -3.019130   5.989710   0.000000
    125      1      1   0.000000   4.830850  -6.741200   0.000000
    126      1      1   0.000000  -5.419540   3.664070   0.000000
    127      1      1   0.000000  -3.130560   5.012680   0.000000
    128      1      1   0.000000   6.143250   3.799220   0.000000
    129      1      1   0.000000   5.602700   5.769270   0.000000
    130      1      1   0.000000  -2.108520   4.795610   0.000000
    131      1      1   0.000000   4.481670   4.678190   0.000000
    132      1      1   0.000000   1.816890   3.623120   0.000000
    133      1      1   0.000000  -1.900000   2.297230   0.000000
    134      1      1   0.000000   5.571560   4.998480   0.000000
    135      1      1   0.000000   0.077060   0.165274   0.000000
    136      1      1   0.000000   5.537260  -0.284067   0.000000
    137      1      1   0.000000   1.096960   6.659600   0.000000
    138      1      1   0.000000  -4.323530   2.141140   0.000000
    139      1      1   0.000000  -6.162460  -2.615080   0.000000
    140      1      1   0.000000   2.092140  -3.058510   0.000000
    141      1      1   0.000000  -6.293570   2.835700   0.000000
    142      1      1   0.000000   2.719930   6.673770   0.000000
    143      1      1   0.000000   0.322530   5.763210   0.000000
    144      1      1   0.000000   1.766610   2.626220   0.000000
    145      1      1   0.000000   4.186400   1.423030   0.000000
    146      1      1   0.000000   2.098830  -0.191076   0.000000
    147      1      1   0.000000   1.068430   0.482247   0.000000
    148      1      1   0.000000   5.143300  -1.123720   0.000000
    149      1      1   0.000000  -1.919510  -5.278040   0.000000
    150      1      1   0.000000  -4.659370  -1.846300   0.000000
    151      1      1   0.000000  -0.956679  -0.203151   0.000000
    152      1      1   0.000000  -4.221790  -0.050976   0.000000

Bond Coeffs # ['bondID', 'bondCoeff', 'd']

      1   0.568740   1.538403
      2   0.627842   1.420887
      3   0.603018   1.456148
      4   0.770999   1.206046
      5   0.786681   1.173566
      6   0.638172   1.410432
      7   1.006581   0.963300
      8   0.824517   1.211068
      9   0.581544   1.669793
     10   0.532459   1.721395
     11   0.908768   1.141960
     12   0.640006   1.512109
     13   0.845021   1.262160
     14   0.734991   1.328611
     15   0.824517   1.211068
     16   0.775412   1.274758
     17   0.542748   1.720511
     18   0.778580   1.287397
     19   0.750499   1.321072
     20   0.728436   1.344173
     21   0.602459   1.629517
     22   0.626598   1.548712
     23   0.847051   1.252594
     24   0.983758   1.047875
     25   0.924428   1.102024
     26   0.961981   1.112551
     27   0.778190   1.317356
     28   0.581544   1.669793
     29   0.977224   1.189886
     30   0.797288   1.411334
     31   0.719736   1.430643
     32   0.818942   1.321923
     33   0.956352   1.227012
     34   0.694267   1.389606
     35   0.647778   1.414532
     36   0.642056   1.403621
     37   0.823636   1.136631
     38   0.640947   1.394801
     39   0.492132   1.782804
     40   0.816547   1.148187
     41   0.602459   1.629517
     42   0.977224   1.189886
     43   0.632024   1.652142
     44   1.009286   1.144577
     45   0.868552   1.255080
     46   1.157756   1.014947
     47   0.706596   1.294890
     48   0.699494   1.324452
     49   0.928966   1.041584
     50   0.585008   1.538527
     51   0.771883   1.235031
     52   0.622740   1.456165
     53   0.797288   1.411334
     54   0.632024   1.652142
     55   0.712459   1.411038
     56   0.860432   1.282895
     57   0.712793   1.497584
     58   0.829890   1.338666
     59   0.694267   1.389606
     60   0.841204   1.202288
     61   0.993250   1.083882
     62   0.584894   1.562716
     63   0.788116   1.266938
     64   0.706596   1.294890
     65   0.577891   1.537475
     66   0.675913   1.347154
     67   0.732268   1.252640
     68   1.136564   0.897062
     69   0.653078   1.379527
     70   0.932139   1.049027
     71   0.841204   1.202288
     72   0.696388   1.383893
     73   0.577876   1.604298
     74   0.619137   1.510255
     75   0.725672   1.269623
     76   1.019201   1.018920
     77   0.733954   1.308438
     78   0.712459   1.411038
     79   1.036435   1.061584
     80   0.690741   1.386355
     81   0.998468   0.955825
     82   0.698999   1.280648
     83   1.019914   0.944158
     84   0.726633   1.236058
     85   0.548185   1.756197
     86   0.526001   1.794046
     87   0.949277   1.131242
     88   0.934086   1.142987
     89   1.108046   1.035748
     90   0.659525   1.476375
     91   0.747973   1.338796
     92   0.731543   1.386246
     93   0.626123   1.540853
     94   0.788262   1.309023
     95   1.078431   1.038065
     96   1.014711   1.098901
     97   0.532459   1.721395
     98   0.775412   1.274758
     99   0.747973   1.338796
    100   0.955770   1.101540
    101   1.103761   1.050545
    102   0.755907   1.316401
    103   1.279478   0.911506
    104   0.763491   1.300503
    105   0.852306   1.216419
    106   0.837769   1.211342
    107   0.632618   1.489976
    108   0.912556   1.123667
    109   0.657765   1.460429
    110   0.626598   1.548712
    111   0.731543   1.386246
    112   1.065758   1.047821
    113   0.628936   1.531005
    114   0.559163   1.651393
    115   0.749519   1.364308
    116   0.811148   1.288206
    117   0.568740   1.538403
    118   0.743968   1.224268
    119   0.534635   1.627451
    120   0.772699   1.258520
    121   0.775635   1.188034
    122   0.676512   1.341383
    123   1.055570   0.976975
    124   0.733785   1.306825
    125   0.605356   1.540122
    126   0.926998   1.068674
    127   0.686973   1.411888
    128   0.596605   1.574573
    129   1.027499   0.987067
    130   0.626123   1.540853
    131   0.763491   1.300503
    132   0.559700   1.680490
    133   0.540632   1.722466
    134   0.931102   1.083155
    135   0.800789   1.225421
    136   1.272238   0.881018
    137   0.699494   1.324452
    138   0.577891   1.537475
    139   0.535809   1.649035
    140   0.672397   1.369654
    141   0.843168   1.128370
    142   0.828408   1.146416
    143   1.051081   0.973332
    144   0.788262   1.309023
    145   0.852306   1.216419
    146   1.065758   1.047821
    147   0.559700   1.680490
    148   0.625289   1.536941
    149   0.627984   1.531473
    150   0.918986   1.156672
    151   0.620578   1.530946
    152   0.736292   1.316965
    153   0.778378   1.316387
    154   1.449032   0.842864
    155   0.943224   1.144990
    156   0.882313   1.193052
    157   0.548185   1.756197
    158   1.133589   1.008619
    159   0.891436   1.230788
    160   0.703318   1.448785
    161   1.180889   1.002129
    162   0.908768   1.141960
    163   0.526001   1.794046
    164   0.622778   1.522478
    165   0.662317   1.471639
    166   0.705403   1.424290
    167   0.965131   1.101619
    168   0.918986   1.156672
    169   0.559556   1.643755
    170   1.193877   1.003108
    171   0.835763   1.269467
    172   0.545608   1.693851
    173   0.948552   1.160755
    174   0.660698   1.448042
    175   0.719736   1.430643
    176   0.860432   1.282895
    177   1.133589   1.008619
    178   0.783852   1.361114
    179   0.825514   1.271441
    180   0.943710   1.139241
    181   0.559556   1.643755
    182   0.763465   1.198692
    183   0.659757   1.442806
    184   0.922598   1.012209
    185   0.667186   1.344530
    186   0.674315   1.307783
    187   1.205189   0.834425
    188   0.928966   1.041584
    189   0.535809   1.649035
    190   0.674560   1.332726
    191   0.694201   1.321514
    192   0.646972   1.378553
    193   0.982550   0.989651
    194   0.620578   1.530946
    195   0.802508   1.265251
    196   0.672645   1.432019
    197   0.943408   1.147200
    198   1.022704   1.085976
    199   1.185250   0.929693
    200   0.809802   1.276843
    201   0.674560   1.332726
    202   0.595245   1.482678
    203   0.609766   1.582622
    204   0.565902   1.561674
    205   1.009197   1.041256
    206   0.720548   1.247060
    207   0.556923   1.606003
    208   0.763465   1.198692
    209   0.673609   1.341159
    210   0.645402   1.478215
    211   0.784927   1.257239
    212   1.279518   0.801944
    213   0.727987   1.241870
    214   0.696388   1.383893
    215   0.653055   1.474786
    216   1.216395   0.926347
    217   0.610626   1.558288
    218   0.746395   1.370235
    219   0.801780   1.248322
    220   0.627842   1.420887
    221   0.743968   1.224268
    222   0.595245   1.482678
    223   0.650655   1.393733
    224   0.889754   1.098309
    225   0.909211   1.059802
    226   0.628936   1.531005
    227   0.625289   1.536941
    228   0.653055   1.474786
    229   0.644487   1.478924
    230   0.767258   1.289516
    231   0.676314   1.433462
    232   1.243485   0.933439
    233   0.769343   1.283234
    234   0.729702   1.350406
    235   0.813392   1.225702
    236   0.777273   1.278736
    237   0.786646   1.229301
    238   0.544710   1.733884
    239   1.277234   0.894174
    240   0.622778   1.522478
    241   0.725249   1.300283
    242   0.747767   1.293794
    243   0.744538   1.310010
    244   0.639221   1.484512
    245   0.885161   1.134169
    246   0.941617   1.089171
    247   0.725249   1.300283
    248   0.827522   1.180238
    249   0.609877   1.521804
    250   1.594448   0.730316
    251   0.862248   1.132135
    252   1.086587   0.953567
    253   0.847220   1.169388
    254   0.510894   1.738748
    255   0.655474   1.386175
    256   0.796674   1.197775
    257   0.797039   1.179882
    258   1.139647   0.915893
    259   0.802508   1.265251
    260   0.712885   1.414641
    261   1.180875   0.962001
    262   0.953692   1.151475
    263   1.637278   0.757972
    264   0.754012   1.343771
    265   0.603018   1.456148
    266   0.703280   1.287275
    267   1.330594   0.762028
    268   0.841762   1.113272
    269   0.716933   1.260544
    270   0.984682   0.968693
    271   0.640637   1.386624
    272   0.993250   1.083882
    273   0.577876   1.604298
    274   0.847220   1.169388
    275   1.053441   0.997103
    276   0.913002   1.129449
    277   1.017228   1.004708
    278   0.651701   1.404235
    279   0.699731   1.347043
    280   0.579546   1.546181
    281   0.948437   1.066270
    282   0.801114   1.181806
    283   0.736292   1.316965
    284   0.766464   1.293085
    285   0.872170   1.170405
    286   0.615289   1.517061
    287   0.970549   1.094543
    288   0.928480   1.110083
    289   1.740316   0.737824
    290   0.733785   1.306825
    291   1.017228   1.004708
    292   0.665879   1.420630
    293   0.821981   1.165222
    294   0.729029   1.290362
    295   0.731611   1.312606
    296   1.036435   1.061584
    297   0.783852   1.361114
    298   0.609766   1.582622
    299   0.860418   1.308940
    300   1.225559   0.942234
    301   0.647778   1.414532
    302   0.703280   1.287275
    303   0.948856   1.033854
    304   0.655826   1.378893
    305   0.819117   1.150287
    306   0.789057   1.179336
    307   0.621747   1.433273
    308   0.949277   1.131242
    309   1.103641   0.990416
    310   0.759797   1.313484
    311   0.758913   1.324514
    312   0.726824   1.348443
    313   0.925761   1.134275
    314   0.847051   1.252594
    315   1.009286   1.144577
    316   0.951403   1.170750
    317   1.306515   0.928118
    318   0.988466   1.148315
    319   0.605356   1.540122
    320   0.747767   1.293794
    321   0.827522   1.180238
    322   0.665879   1.420630
    323   0.733376   1.340972
    324   0.919404   1.108185
    325   0.651701   1.404235
    326   0.821981   1.165222
    327   0.724999   1.271119
    328   0.685133   1.351337
    329   1.133253   0.877685
    330   1.336704   0.776791
    331   0.769343   1.283234
    332   0.719356   1.377210
    333   0.670131   1.439648
    334   0.827753   1.235959
    335   1.148726   0.931240
    336   0.984565   1.055421
    337   0.675913   1.347154
    338   0.849271   1.132375
    339   0.842327   1.143433
    340   0.796382   1.188548
    341   1.355208   0.814534
    342   1.328366   0.821697
    343   0.510894   1.738748
    344   1.053441   0.997103
    345   0.833433   1.161287
    346   1.058914   0.954304
    347   0.720112   1.303927
    348   0.862590   1.141991
    349   0.729702   1.350406
    350   0.766464   1.293085
    351   0.719356   1.377210
    352   0.928613   1.147199
    353   0.935649   1.166022
    354   1.025384   1.087340
    355   0.732268   1.252640
    356   0.926998   1.068674
    357   0.729029   1.290362
    358   0.724999   1.271119
    359   0.779291   1.221390
    360   0.976176   1.003554
    361   0.673609   1.341159
    362   0.655474   1.386175
    363   0.714379   1.294227
    364   1.030045   0.941066
    365   0.830863   1.126030
    366   0.763930   1.190938
    367   0.716672   1.265417
    368   0.672645   1.432019
    369   0.754565   1.312704
    370   0.999260   1.093416
    371   1.086549   0.957901
    372   0.913995   1.095903
    373   0.782073   1.299048
    374   0.820435   1.212005
    375   0.778378   1.316387
    376   1.193877   1.003108
    377   0.659757   1.442806
    378   0.645402   1.478215
    379   1.060373   1.084500
    380   0.993281   1.144902
    381   0.542748   1.720511
    382   0.686973   1.411888
    383   0.660675   1.482591
    384   1.030987   1.039417
    385   0.862394   1.188949
    386   0.778580   1.287397
    387   1.078431   1.038065
    388   0.955770   1.101540
    389   0.540632   1.722466
    390   0.660675   1.482591
    391   0.811365   1.241786
    392   1.103641   0.990416
    393   0.670131   1.439648
    394   0.938885   1.112332
    395   0.821756   1.239449
    396   0.837531   1.200591
    397   0.591745   1.571519
    398   0.699731   1.347043
    399   0.694574   1.329075
    400   0.800692   1.234153
    401   0.708929   1.341475
    402   1.015815   0.980259
    403   0.921924   1.055843
    404   0.619137   1.510255
    405   0.837769   1.211342
    406   0.627984   1.531473
    407   1.216395   0.926347
    408   0.644487   1.478924
    409   0.744723   1.315203
    410   0.694574   1.329075
    411   0.633413   1.440566
    412   0.957870   0.983261
    413   0.861870   1.084060
    414   0.712274   1.361916
    415   1.307629   0.771485
    416   1.208753   0.866387
    417   1.259776   0.927373
    418   0.792395   1.204392
    419   0.637132   1.522750
    420   0.890299   1.089279
    421   0.995156   1.094743
    422   1.237354   0.853905
    423   1.226833   0.929201
    424   0.796674   1.197775
    425   0.833433   1.161287
    426   0.714379   1.294227
    427   0.702725   1.308069
    428   0.680157   1.365049
    429   0.769889   1.228906
    430   0.770999   1.206046
    431   0.585008   1.538527
    432   0.694201   1.321514
    433   0.565902   1.561674
    434   0.650655   1.393733
    435   0.844978   1.131280
    436   0.610626   1.558288
    437   0.767258   1.289516
    438   0.813392   1.225702
    439   1.027722   1.044466
    440   0.779139   1.316993
    441   1.029902   1.048612
    442   0.609877   1.521804
    443   0.800692   1.234153
    444   0.906342   1.126597
    445   0.734980   1.309994
    446   0.778933   1.262717
    447   0.808092   1.233469
    448   0.708929   1.341475
    449   0.633413   1.440566
    450   0.906342   1.126597
    451   0.711831   1.326706
    452   1.196244   0.956456
    453   0.952775   1.096003
    454   0.934086   1.142987
    455   0.662317   1.471639
    456   0.744538   1.310010
    457   0.759797   1.313484
    458   0.938885   1.112332
    459   0.710262   1.371375
    460   0.872170   1.170405
    461   0.758913   1.324514
    462   0.827753   1.235959
    463   0.928613   1.147199
    464   0.821756   1.239449
    465   0.795289   1.279560
    466   0.750499   1.321072
    467   0.596605   1.574573
    468   0.639221   1.484512
    469   0.733376   1.340972
    470   1.224842   0.924913
    471   0.676314   1.433462
    472   0.777273   1.278736
    473   0.754565   1.312704
    474   1.027722   1.044466
    475   0.784617   1.318354
    476   0.947690   1.139091
    477   1.030045   0.941066
    478   0.702725   1.308069
    479   0.611191   1.446433
    480   1.297687   0.780693
    481   0.762468   1.215303
    482   0.773873   1.174827
    483   0.615289   1.517061
    484   0.845138   1.219293
    485   1.125619   0.958174
    486   1.012479   1.069691
    487   1.029227   1.041795
    488   1.481280   0.805726
    489   0.712793   1.497584
    490   0.690741   1.386355
    491   1.259776   0.927373
    492   1.219955   0.902412
    493   1.420476   0.890190
    494   0.786646   1.229301
    495   1.148726   0.931240
    496   0.734980   1.309994
    497   0.711831   1.326706
    498   1.230469   0.866872
    499   0.997846   1.044595
    500   0.786681   1.173566
    501   0.534635   1.627451
    502   1.330594   0.762028
    503   0.798104   1.168903
    504   0.995037   0.973900
    505   0.891436   1.230788
    506   0.825514   1.271441
    507   1.009197   1.041256
    508   0.860418   1.308940
    509   0.781608   1.306514
    510   0.849271   1.132375
    511   1.007532   0.983267
    512   1.049755   0.959370
    513   0.929854   1.061688
    514   1.072681   0.931853
    515   0.807199   1.194208
    516   0.642056   1.403621
    517   0.922598   1.012209
    518   0.576190   1.522797
    519   1.946177   0.558580
    520   0.846455   1.124482
    521   1.058914   0.954304
    522   1.007532   0.983267
    523   0.888420   1.096848
    524   0.942449   1.027795
    525   1.224176   0.851385
    526   0.635004   1.450014
    527   0.771883   1.235031
    528   1.136564   0.897062
    529   0.685133   1.351337
    530   0.779291   1.221390
    531   0.634612   1.435382
    532   0.998468   0.955825
    533   0.792395   1.204392
    534   0.611191   1.446433
    535   1.219955   0.902412
    536   0.889192   1.051684
    537   1.082791   0.889506
    538   0.885161   1.134169
    539   1.594448   0.730316
    540   0.837531   1.200591
    541   0.710262   1.371375
    542   0.943949   1.080292
    543   1.108046   1.035748
    544   0.703318   1.448785
    545   0.998444   1.081547
    546   0.988083   1.084920
    547   0.986486   1.066593
    548   0.868552   1.255080
    549   0.829890   1.338666
    550   0.951403   1.170750
    551   0.637132   1.522750
    552   1.420476   0.890190
    553   1.187835   1.001544
    554   0.672397   1.369654
    555   0.741418   1.253863
    556   0.762194   1.227590
    557   0.901536   1.064270
    558   1.145885   0.895065
    559   0.796730   1.164280
    560   0.772699   1.258520
    561   0.835763   1.269467
    562   0.845138   1.219293
    563   1.145713   0.947737
    564   0.751407   1.369491
    565   0.881340   1.202206
    566   0.823636   1.136631
    567   0.584894   1.562716
    568   0.725672   1.269623
    569   0.957870   0.983261
    570   1.941529   0.567107
    571   1.039125   0.959503
    572   0.943408   1.147200
    573   0.544710   1.733884
    574   0.935649   1.166022
    575   0.999260   1.093416
    576   0.784617   1.318354
    577   0.931102   1.083155
    578   0.842327   1.143433
    579   1.049755   0.959370
    580   1.150644   0.905874
    581   0.833746   1.171953
    582   0.891155   1.114989
    583   0.862248   1.132135
    584   0.984565   1.055421
    585   0.591745   1.571519
    586   0.778933   1.262717
    587   1.230469   0.866872
    588   0.943949   1.080292
    589   0.659525   1.476375
    590   0.726824   1.348443
    591   1.125619   0.958174
    592   0.998444   1.081547
    593   1.219256   0.925284
    594   0.949213   1.101297
    595   0.784927   1.257239
    596   0.712885   1.414641
    597   1.060373   1.084500
    598   0.837218   1.180869
    599   1.017877   1.117480
    600   1.147109   1.008913
    601   0.667186   1.344530
    602   1.279518   0.801944
    603   0.797039   1.179882
    604   0.830863   1.126030
    605   0.576190   1.522797
    606   1.077585   0.942410
    607   0.698999   1.280648
    608   0.646972   1.378553
    609   0.720548   1.247060
    610   1.225559   0.942234
    611   0.786705   1.171448
    612   0.752760   1.208291
    613   0.653078   1.379527
    614   1.027499   0.987067
    615   0.796382   1.188548
    616   0.976176   1.003554
    617   1.177551   0.893995
    618   0.556923   1.606003
    619   0.889754   1.098309
    620   0.781608   1.306514
    621   0.988083   1.084920
    622   2.630088   0.488215
    623   0.841762   1.113272
    624   0.948856   1.033854
    625   0.893789   1.072600
    626   0.689824   1.326499
    627   0.604925   1.488586
    628   0.731822   1.265374
    629   0.579546   1.546181
    630   0.655826   1.378893
    631   1.015815   0.980259
    632   0.893789   1.072600
    633   1.746106   0.632277
    634   0.751831   1.220408
    635   0.632618   1.489976
    636   0.800789   1.225421
    637   0.929854   1.061688
    638   0.888420   1.096848
    639   1.150644   0.905874
    640   0.948623   1.063813
    641   0.775635   1.188034
    642   0.545608   1.693851
    643   0.798104   1.168903
    644   1.145713   0.947737
    645   0.682543   1.338220
    646   0.640006   1.512109
    647   0.818942   1.321923
    648   1.180889   1.002129
    649   0.705403   1.424290
    650   0.943710   1.139241
    651   1.449032   0.842864
    652   0.948552   1.160755
    653   0.970549   1.094543
    654   1.012479   1.069691
    655   0.751407   1.369491
    656   1.086587   0.953567
    657   0.948437   1.066270
    658   0.731611   1.312606
    659   0.919404   1.108185
    660   0.808092   1.233469
    661   1.133253   0.877685
    662   0.634612   1.435382
    663   0.689824   1.326499
    664   0.787936   1.182246
    665   0.799739   1.161580
    666   1.171654   0.852993
    667   0.676512   1.341383
    668   0.909211   1.059802
    669   0.986486   1.066593
    670   2.630088   0.488215
    671   0.956192   1.076154
    672   0.843168   1.128370
    673   1.072681   0.931853
    674   0.942449   1.027795
    675   0.741418   1.253863
    676   1.219157   0.849252
    677   0.759367   1.245916
    678   0.727987   1.241870
    679   0.763930   1.190938
    680   0.890299   1.089279
    681   0.837218   1.180869
    682   0.900137   1.032868
    683   1.437736   0.782914
    684   0.638172   1.410432
    685   0.622740   1.456165
    686   0.844978   1.131280
    687   0.787936   1.182246
    688   1.241814   0.830687
    689   0.640947   1.394801
    690   0.674315   1.307783
    691   1.946177   0.558580
    692   1.049707   0.912133
    693   0.866450   1.070105
    694   0.792689   1.148588
    695   0.983758   1.047875
    696   0.559163   1.651393
    697   1.086549   0.957901
    698   2.621771   0.489707
    699   0.761978   1.295915
    700   1.006581   0.963300
    701   0.716933   1.260544
    702   0.604925   1.488586
    703   0.799739   1.161580
    704   1.241814   0.830687
    705   0.492132   1.782804
    706   0.984682   0.968693
    707   0.819117   1.150287
    708   1.049707   0.912133
    709   1.224370   0.831710
    710   1.180875   0.962001
    711   1.306515   0.928118
    712   0.985603   1.048800
    713   1.160021   0.997670
    714   1.063890   1.010741
    715   0.720112   1.303927
    716   0.680157   1.365049
    717   1.224176   0.851385
    718   1.219157   0.849252
    719   1.287860   0.823085
    720   0.943224   1.144990
    721   1.022704   1.085976
    722   0.953692   1.151475
    723   0.993281   1.144902
    724   1.017877   1.117480
    725   0.924428   1.102024
    726   0.913995   1.095903
    727   2.621771   0.489707
    728   0.985603   1.048800
    729   0.919020   1.085721
    730   0.789057   1.179336
    731   0.921924   1.055843
    732   0.861870   1.084060
    733   1.746106   0.632277
    734   0.911989   1.027103
    735   0.845021   1.262160
    736   0.956352   1.227012
    737   1.103761   1.050545
    738   1.252748   0.983364
    739   0.828408   1.146416
    740   0.982550   0.989651
    741   0.762194   1.227590
    742   0.786705   1.171448
    743   0.726994   1.261253
    744   0.988466   1.148315
    745   0.995156   1.094743
    746   1.187835   1.001544
    747   1.160021   0.997670
    748   0.897250   1.204211
    749   0.961981   1.112551
    750   1.157756   1.014947
    751   0.755907   1.316401
    752   1.252748   0.983364
    753   1.074668   1.044837
    754   0.716672   1.265417
    755   1.237354   0.853905
    756   1.297687   0.780693
    757   0.889192   1.051684
    758   0.900137   1.032868
    759   1.019914   0.944158
    760   0.901536   1.064270
    761   0.752760   1.208291
    762   0.726994   1.261253
    763   1.308373   0.771419
    764   0.778190   1.317356
    765   1.014711   1.098901
    766   1.279478   0.911506
    767   0.749519   1.364308
    768   1.074668   1.044837
    769   0.769889   1.228906
    770   0.762468   1.215303
    771   1.145885   0.895065
    772   1.287860   0.823085
    773   0.819234   1.135978
    774   0.912556   1.123667
    775   0.862590   1.141991
    776   0.635004   1.450014
    777   0.948623   1.063813
    778   1.055177   0.998167
    779   0.811148   1.288206
    780   1.243485   0.933439
    781   0.782073   1.299048
    782   0.947690   1.139091
    783   0.761978   1.295915
    784   0.726633   1.236058
    785   0.773873   1.174827
    786   1.082791   0.889506
    787   0.796730   1.164280
    788   1.308373   0.771419
    789   0.819234   1.135978
    790   0.746395   1.370235
    791   0.712274   1.361916
    792   0.779139   1.316993
    793   1.196244   0.956456
    794   0.660698   1.448042
    795   1.205189   0.834425
    796   0.682543   1.338220
    797   0.866450   1.070105
    798   1.067461   0.927481
    799   1.355208   0.814534
    800   1.030987   1.039417
    801   0.833746   1.171953
    802   1.177551   0.893995
    803   0.841569   1.184591
    804   1.185250   0.929693
    805   1.637278   0.757972
    806   0.820435   1.212005
    807   1.063890   1.010741
    808   0.919020   1.085721
    809   1.055570   0.976975
    810   1.029227   1.041795
    811   0.881340   1.202206
    812   1.219256   0.925284
    813   0.956192   1.076154
    814   0.801114   1.181806
    815   1.336704   0.776791
    816   0.731822   1.265374
    817   0.751831   1.220408
    818   1.171654   0.852993
    819   0.754012   1.343771
    820   1.226833   0.929201
    821   1.147109   1.008913
    822   1.437736   0.782914
    823   0.897250   1.204211
    824   0.932139   1.049027
    825   1.051081   0.973332
    826   1.328366   0.821697
    827   0.807199   1.194208
    828   0.759367   1.245916
    829   1.272238   0.881018
    830   0.862394   1.188949
    831   0.811365   1.241786
    832   0.891155   1.114989
    833   0.841569   1.184591
    834   1.019201   1.018920
    835   0.657765   1.460429
    836   0.913002   1.129449
    837   0.744723   1.315203
    838   1.055177   0.998167
    839   0.788116   1.266938
    840   1.139647   0.915893
    841   0.846455   1.124482
    842   1.077585   0.942410
    843   0.816547   1.148187
    844   0.621747   1.433273
    845   1.307629   0.771485
    846   1.941529   0.567107
    847   0.911989   1.027103
    848   0.733954   1.308438
    849   0.801780   1.248322
    850   1.208753   0.866387
    851   1.039125   0.959503
    852   0.640637   1.386624
    853   0.995037   0.973900
    854   0.792689   1.148588
    855   1.224370   0.831710
    856   1.067461   0.927481
    857   0.734991   1.328611
    858   0.728436   1.344173
    859   0.965131   1.101619
    860   0.941617   1.089171
    861   1.224842   0.924913
    862   0.928480   1.110083
    863   0.925761   1.134275
    864   0.795289   1.279560
    865   1.481280   0.805726
    866   0.949213   1.101297
    867   1.277234   0.894174
    868   1.029902   1.048612
    869   0.952775   1.096003
    870   0.997846   1.044595
    871   0.882313   1.193052
    872   0.809802   1.276843
    873   1.740316   0.737824
    874   1.025384   1.087340

Bonds # ['ID', 'type', 'atom1', 'atom2']

         1         1         1        19
         2         2         1        35
         3         3         1        42
         4         4         1        69
         5         5         1        81
         6         6         1       114
         7         7         1       117
         8         8         2         3
         9         9         2         5
        10        10         2        16
        11        11         2        26
        12        12         2       107
        13        13         2       124
        14        14         2       149
        15        15         3         2
        16        16         3        16
        17        17         3        61
        18        18         3        62
        19        19         3        75
        20        20         3       149
        21        21         4         7
        22        22         4        18
        23        23         4        50
        24        24         4       116
        25        25         4       122
        26        26         4       127
        27        27         4       130
        28        28         5         2
        29        29         5         7
        30        30         5         9
        31        31         5        28
        32        32         5       107
        33        33         5       124
        34        34         6        10
        35        35         6        48
        36        36         6        84
        37        37         6        93
        38        38         6       115
        39        39         6       118
        40        40         6       146
        41        41         7         4
        42        42         7         5
        43        43         7         9
        44        44         7        50
        45        45         7        90
        46        46         7       127
        47        47         8        11
        48        48         8        22
        49        49         8        30
        50        50         8        69
        51        51         8        86
        52        52         8       114
        53        53         9         5
        54        54         9         7
        55        55         9        13
        56        56         9        28
        57        57         9        79
        58        58         9        90
        59        59        10         6
        60        60        10        12
        61        61        10        43
        62        62        10        93
        63        63        10       145
        64        64        11         8
        65        65        11        22
        66        66        11        54
        67        67        11        57
        68        68        11        86
        69        69        11       101
        70        70        11       142
        71        71        12        10
        72        72        12        34
        73        73        12        43
        74        74        12        65
        75        75        12        93
        76        76        12       144
        77        77        12       147
        78        78        13         9
        79        79        13        47
        80        80        13        79
        81        81        13        87
        82        82        13       100
        83        83        13       129
        84        84        13       134
        85        85        14        25
        86        86        14        26
        87        87        14        49
        88        88        14        73
        89        89        14        89
        90        90        14        97
        91        91        15        16
        92        92        15        18
        93        93        15        21
        94        94        15        23
        95        95        15        62
        96        96        15       130
        97        97        16         2
        98        98        16         3
        99        99        16        15
       100       100        16        62
       101       101        16       124
       102       102        16       127
       103       103        16       130
       104       104        17        21
       105       105        17        23
       106       106        17        65
       107       107        17       105
       108       108        17       132
       109       109        17       144
       110       110        18         4
       111       111        18        15
       112       112        18        23
       113       113        18        36
       114       114        18       116
       115       115        18       130
       116       116        18       133
       117       117        19         1
       118       118        19        35
       119       119        19        81
       120       120        19        92
       121       121        19       106
       122       122        19       111
       123       123        19       139
       124       124        20        46
       125       125        20        51
       126       126        20        57
       127       127        20        61
       128       128        20        75
       129       129        20       101
       130       130        21        15
       131       131        21        17
       132       132        21        23
       133       133        21        62
       134       134        21        95
       135       135        21       105
       136       136        21       143
       137       137        22         8
       138       138        22        11
       139       139        22        30
       140       140        22        91
       141       141        22       112
       142       142        22       125
       143       143        22       142
       144       144        23        15
       145       145        23        17
       146       146        23        18
       147       147        23        21
       148       148        23        36
       149       149        23        65
       150       150        24        27
       151       151        24        31
       152       152        24        45
       153       153        24        60
       154       154        24       108
       155       155        24       121
       156       156        24       152
       157       157        25        14
       158       158        25        28
       159       159        25        82
       160       160        25        89
       161       161        25       107
       162       162        26         2
       163       163        26        14
       164       164        26        38
       165       165        26        73
       166       166        26       107
       167       167        26       149
       168       168        27        24
       169       169        27        29
       170       170        27        60
       171       171        27        92
       172       172        27       106
       173       173        27       108
       174       174        27       136
       175       175        28         5
       176       176        28         9
       177       177        28        25
       178       178        28        47
       179       179        28        82
       180       180        28       107
       181       181        29        27
       182       182        29        33
       183       183        29        60
       184       184        29        84
       185       185        29        99
       186       186        29       115
       187       187        29       136
       188       188        30         8
       189       189        30        22
       190       190        30        32
       191       191        30        69
       192       192        30       100
       193       193        30       125
       194       194        31        24
       195       195        31        41
       196       196        31        59
       197       197        31        94
       198       198        31       121
       199       199        31       138
       200       200        31       152
       201       201        32        30
       202       202        32        35
       203       203        32        47
       204       204        32        69
       205       205        32        82
       206       206        32       100
       207       207        32       102
       208       208        33        29
       209       209        33        58
       210       210        33        60
       211       211        33        98
       212       212        33        99
       213       213        33       113
       214       214        34        12
       215       215        34        36
       216       216        34        65
       217       217        34        70
       218       218        34       135
       219       219        34       147
       220       220        35         1
       221       221        35        19
       222       222        35        32
       223       223        35        69
       224       224        35       102
       225       225        35       111
       226       226        36        18
       227       227        36        23
       228       228        36        34
       229       229        36        65
       230       230        36        70
       231       231        36        76
       232       232        36       133
       233       233        37        53
       234       234        37        56
       235       235        37        70
       236       236        37        76
       237       237        37        80
       238       238        37        94
       239       239        37       151
       240       240        38        26
       241       241        38        39
       242       242        38        51
       243       243        38        73
       244       244        38        75
       245       245        38        88
       246       246        38       149
       247       247        39        38
       248       248        39        51
       249       249        39        71
       250       250        39        88
       251       251        39        96
       252       252        39       109
       253       253        40        43
       254       254        40        55
       255       255        40        58
       256       256        40        68
       257       257        40        99
       258       258        40       145
       259       259        41        31
       260       260        41        98
       261       261        41       119
       262       262        41       121
       263       263        41       138
       264       264        41       141
       265       265        42         1
       266       266        42        48
       267       267        42        81
       268       268        42       103
       269       269        42       117
       270       270        42       118
       271       271        42       148
       272       272        43        10
       273       273        43        12
       274       274        43        40
       275       275        43        55
       276       276        43       144
       277       277        44        46
       278       278        44        52
       279       279        44        64
       280       280        44       104
       281       281        44       109
       282       282        44       140
       283       283        45        24
       284       284        45        56
       285       285        45        74
       286       286        45        78
       287       287        45       108
       288       288        45       150
       289       289        45       152
       290       290        46        20
       291       291        46        44
       292       292        46        51
       293       293        46        52
       294       294        46        57
       295       295        46       109
       296       296        47        13
       297       297        47        28
       298       298        47        32
       299       299        47        82
       300       300        47       100
       301       301        48         6
       302       302        48        42
       303       303        48       103
       304       304        48       104
       305       305        48       118
       306       306        48       123
       307       307        48       146
       308       308        49        14
       309       309        49        63
       310       310        49        73
       311       311        49        74
       312       312        49        97
       313       313        49       150
       314       314        50         4
       315       315        50         7
       316       316        50        90
       317       317        50       119
       318       318        50       126
       319       319        51        20
       320       320        51        38
       321       321        51        39
       322       322        51        46
       323       323        51        75
       324       324        51       109
       325       325        52        44
       326       326        52        46
       327       327        52        57
       328       328        52        86
       329       329        52       110
       330       330        52       140
       331       331        53        37
       332       332        53        56
       333       333        53        63
       334       334        53        74
       335       335        53        80
       336       336        53        96
       337       337        54        11
       338       338        54        83
       339       339        54        95
       340       340        54       101
       341       341        54       137
       342       342        54       142
       343       343        55        40
       344       344        55        43
       345       345        55        68
       346       346        55        85
       347       347        55       120
       348       348        55       132
       349       349        56        37
       350       350        56        45
       351       351        56        53
       352       352        56        74
       353       353        56        94
       354       354        56       152
       355       355        57        11
       356       356        57        20
       357       357        57        46
       358       358        57        52
       359       359        57        86
       360       360        57       101
       361       361        58        33
       362       362        58        40
       363       363        58        68
       364       364        58        77
       365       365        58        99
       366       366        58       113
       367       367        58       128
       368       368        59        31
       369       369        59        76
       370       370        59        94
       371       371        59       116
       372       372        59       122
       373       373        59       133
       374       374        59       138
       375       375        60        24
       376       376        60        27
       377       377        60        29
       378       378        60        33
       379       379        60        98
       380       380        60       121
       381       381        61         3
       382       382        61        20
       383       383        61        62
       384       384        61       137
       385       385        61       143
       386       386        62         3
       387       387        62        15
       388       388        62        16
       389       389        62        21
       390       390        62        61
       391       391        62       143
       392       392        63        49
       393       393        63        53
       394       394        63        73
       395       395        63        74
       396       396        63        88
       397       397        63        96
       398       398        64        44
       399       399        64        66
       400       400        64        71
       401       401        64        72
       402       402        64       104
       403       403        64       123
       404       404        65        12
       405       405        65        17
       406       406        65        23
       407       407        65        34
       408       408        65        36
       409       409        65       144
       410       410        66        64
       411       411        66        72
       412       412        66        93
       413       413        66       123
       414       414        66       135
       415       415        66       146
       416       416        66       147
       417       417        67        79
       418       418        67        87
       419       419        67        90
       420       420        67       113
       421       421        67       126
       422       422        67       128
       423       423        67       141
       424       424        68        40
       425       425        68        55
       426       426        68        58
       427       427        68        77
       428       428        68       120
       429       429        68       131
       430       430        69         1
       431       431        69         8
       432       432        69        30
       433       433        69        32
       434       434        69        35
       435       435        69       114
       436       436        70        34
       437       437        70        36
       438       438        70        37
       439       439        70        76
       440       440        70       135
       441       441        70       151
       442       442        71        39
       443       443        71        64
       444       444        71        72
       445       445        71        80
       446       446        71        96
       447       447        71       109
       448       448        72        64
       449       449        72        66
       450       450        72        71
       451       451        72        80
       452       452        72       135
       453       453        72       151
       454       454        73        14
       455       455        73        26
       456       456        73        38
       457       457        73        49
       458       458        73        63
       459       459        73        88
       460       460        74        45
       461       461        74        49
       462       462        74        53
       463       463        74        56
       464       464        74        63
       465       465        74       150
       466       466        75         3
       467       467        75        20
       468       468        75        38
       469       469        75        51
       470       470        75       149
       471       471        76        36
       472       472        76        37
       473       473        76        59
       474       474        76        70
       475       475        76        94
       476       476        76       133
       477       477        77        58
       478       478        77        68
       479       479        77        87
       480       480        77       128
       481       481        77       131
       482       482        77       134
       483       483        78        45
       484       484        78        92
       485       485        78        97
       486       486        78       108
       487       487        78       139
       488       488        78       150
       489       489        79         9
       490       490        79        13
       491       491        79        67
       492       492        79        87
       493       493        79        90
       494       494        80        37
       495       495        80        53
       496       496        80        71
       497       497        80        72
       498       498        80        96
       499       499        80       151
       500       500        81         1
       501       501        81        19
       502       502        81        42
       503       503        81       106
       504       504        81       148
       505       505        82        25
       506       506        82        28
       507       507        82        32
       508       508        82        47
       509       509        82       102
       510       510        83        54
       511       511        83        85
       512       512        83        95
       513       513        83       105
       514       514        83       112
       515       515        83       142
       516       516        84         6
       517       517        84        29
       518       518        84        99
       519       519        84       115
       520       520        84       145
       521       521        85        55
       522       522        85        83
       523       523        85       105
       524       524        85       112
       525       525        85       120
       526       526        85       132
       527       527        86         8
       528       528        86        11
       529       529        86        52
       530       530        86        57
       531       531        86       110
       532       532        87        13
       533       533        87        67
       534       534        87        77
       535       535        87        79
       536       536        87       128
       537       537        87       134
       538       538        88        38
       539       539        88        39
       540       540        88        63
       541       541        88        73
       542       542        88        96
       543       543        89        14
       544       544        89        25
       545       545        89        97
       546       546        89       102
       547       547        89       111
       548       548        90         7
       549       549        90         9
       550       550        90        50
       551       551        90        67
       552       552        90        79
       553       553        90       126
       554       554        91        22
       555       555        91       112
       556       556        91       125
       557       557        91       129
       558       558        91       131
       559       559        91       134
       560       560        92        19
       561       561        92        27
       562       562        92        78
       563       563        92       106
       564       564        92       108
       565       565        92       139
       566       566        93         6
       567       567        93        10
       568       568        93        12
       569       569        93        66
       570       570        93       146
       571       571        93       147
       572       572        94        31
       573       573        94        37
       574       574        94        56
       575       575        94        59
       576       576        94        76
       577       577        95        21
       578       578        95        54
       579       579        95        83
       580       580        95       105
       581       581        95       137
       582       582        95       143
       583       583        96        39
       584       584        96        53
       585       585        96        63
       586       586        96        71
       587       587        96        80
       588       588        96        88
       589       589        97        14
       590       590        97        49
       591       591        97        78
       592       592        97        89
       593       593        97       139
       594       594        97       150
       595       595        98        33
       596       596        98        41
       597       597        98        60
       598       598        98       113
       599       599        98       121
       600       600        98       141
       601       601        99        29
       602       602        99        33
       603       603        99        40
       604       604        99        58
       605       605        99        84
       606       606        99       145
       607       607       100        13
       608       608       100        30
       609       609       100        32
       610       610       100        47
       611       611       100       125
       612       612       100       129
       613       613       101        11
       614       614       101        20
       615       615       101        54
       616       616       101        57
       617       617       101       137
       618       618       102        32
       619       619       102        35
       620       620       102        82
       621       621       102        89
       622       622       102       111
       623       623       103        42
       624       624       103        48
       625       625       103       104
       626       626       103       110
       627       627       103       117
       628       628       103       140
       629       629       104        44
       630       630       104        48
       631       631       104        64
       632       632       104       103
       633       633       104       123
       634       634       104       140
       635       635       105        17
       636       636       105        21
       637       637       105        83
       638       638       105        85
       639       639       105        95
       640       640       105       132
       641       641       106        19
       642       642       106        27
       643       643       106        81
       644       644       106        92
       645       645       106       136
       646       646       107         2
       647       647       107         5
       648       648       107        25
       649       649       107        26
       650       650       107        28
       651       651       108        24
       652       652       108        27
       653       653       108        45
       654       654       108        78
       655       655       108        92
       656       656       109        39
       657       657       109        44
       658       658       109        46
       659       659       109        51
       660       660       109        71
       661       661       110        52
       662       662       110        86
       663       663       110       103
       664       664       110       114
       665       665       110       117
       666       666       110       140
       667       667       111        19
       668       668       111        35
       669       669       111        89
       670       670       111       102
       671       671       111       139
       672       672       112        22
       673       673       112        83
       674       674       112        85
       675       675       112        91
       676       676       112       120
       677       677       112       142
       678       678       113        33
       679       679       113        58
       680       680       113        67
       681       681       113        98
       682       682       113       128
       683       683       113       141
       684       684       114         1
       685       685       114         8
       686       686       114        69
       687       687       114       110
       688       688       114       117
       689       689       115         6
       690       690       115        29
       691       691       115        84
       692       692       115       118
       693       693       115       136
       694       694       115       148
       695       695       116         4
       696       696       116        18
       697       697       116        59
       698       698       116       122
       699       699       116       133
       700       700       117         1
       701       701       117        42
       702       702       117       103
       703       703       117       110
       704       704       117       114
       705       705       118         6
       706       706       118        42
       707       707       118        48
       708       708       118       115
       709       709       118       148
       710       710       119        41
       711       711       119        50
       712       712       119       122
       713       713       119       126
       714       714       119       138
       715       715       120        55
       716       716       120        68
       717       717       120        85
       718       718       120       112
       719       719       120       131
       720       720       121        24
       721       721       121        31
       722       722       121        41
       723       723       121        60
       724       724       121        98
       725       725       122         4
       726       726       122        59
       727       727       122       116
       728       728       122       119
       729       729       122       138
       730       730       123        48
       731       731       123        64
       732       732       123        66
       733       733       123       104
       734       734       123       146
       735       735       124         2
       736       736       124         5
       737       737       124        16
       738       738       124       127
       739       739       125        22
       740       740       125        30
       741       741       125        91
       742       742       125       100
       743       743       125       129
       744       744       126        50
       745       745       126        67
       746       746       126        90
       747       747       126       119
       748       748       126       141
       749       749       127         4
       750       750       127         7
       751       751       127        16
       752       752       127       124
       753       753       127       130
       754       754       128        58
       755       755       128        67
       756       756       128        77
       757       757       128        87
       758       758       128       113
       759       759       129        13
       760       760       129        91
       761       761       129       100
       762       762       129       125
       763       763       129       134
       764       764       130         4
       765       765       130        15
       766       766       130        16
       767       767       130        18
       768       768       130       127
       769       769       131        68
       770       770       131        77
       771       771       131        91
       772       772       131       120
       773       773       131       134
       774       774       132        17
       775       775       132        55
       776       776       132        85
       777       777       132       105
       778       778       132       144
       779       779       133        18
       780       780       133        36
       781       781       133        59
       782       782       133        76
       783       783       133       116
       784       784       134        13
       785       785       134        77
       786       786       134        87
       787       787       134        91
       788       788       134       129
       789       789       134       131
       790       790       135        34
       791       791       135        66
       792       792       135        70
       793       793       135        72
       794       794       136        27
       795       795       136        29
       796       796       136       106
       797       797       136       115
       798       798       136       148
       799       799       137        54
       800       800       137        61
       801       801       137        95
       802       802       137       101
       803       803       137       143
       804       804       138        31
       805       805       138        41
       806       806       138        59
       807       807       138       119
       808       808       138       122
       809       809       139        19
       810       810       139        78
       811       811       139        92
       812       812       139        97
       813       813       139       111
       814       814       140        44
       815       815       140        52
       816       816       140       103
       817       817       140       104
       818       818       140       110
       819       819       141        41
       820       820       141        67
       821       821       141        98
       822       822       141       113
       823       823       141       126
       824       824       142        11
       825       825       142        22
       826       826       142        54
       827       827       142        83
       828       828       142       112
       829       829       143        21
       830       830       143        61
       831       831       143        62
       832       832       143        95
       833       833       143       137
       834       834       144        12
       835       835       144        17
       836       836       144        43
       837       837       144        65
       838       838       144       132
       839       839       145        10
       840       840       145        40
       841       841       145        84
       842       842       145        99
       843       843       146         6
       844       844       146        48
       845       845       146        66
       846       846       146        93
       847       847       146       123
       848       848       147        12
       849       849       147        34
       850       850       147        66
       851       851       147        93
       852       852       148        42
       853       853       148        81
       854       854       148       115
       855       855       148       118
       856       856       148       136
       857       857       149         2
       858       858       149         3
       859       859       149        26
       860       860       149        38
       861       861       149        75
       862       862       150        45
       863       863       150        49
       864       864       150        74
       865       865       150        78
       866       866       150        97
       867       867       151        37
       868       868       151        70
       869       869       151        72
       870       870       151        80
       871       871       152        24
       872       872       152        31
       873       873       152        45
       874       874       152        56

Angle Coeffs # ['angleID', 'energy', 'value (deg)']

      7   0.000000 152.426812
    143   0.000000  44.283793
   1849   0.000000 119.540993
    289   0.000000  78.220538
    434   0.000000 162.327055
   1575   0.000000  54.515451
    985   0.000000  87.592983
    983   0.000000 107.563568
   1650   0.000000 111.883006
   1268   0.000000  68.016078
   1917   0.000000  84.286825
   1505   0.000000  41.170792
    485   0.000000 178.280424
     39   0.000000  52.298239
   1750   0.000000 109.547243
   1636   0.000000  66.624908
    467   0.000000  80.147461
   1216   0.000000 101.604968
   1532   0.000000 100.972888
    604   0.000000 116.413740
    392   0.000000  59.322998
    620   0.000000 100.940231
    907   0.000000 130.907449
    887   0.000000 102.145883
    476   0.000000  83.254766
    490   0.000000  64.131668
    345   0.000000 123.179660
    522   0.000000 133.652719
    846   0.000000 176.749357
     41   0.000000 115.408537
    558   0.000000 150.930843
   1082   0.000000 163.087038
    284   0.000000  83.704617
   2063   0.000000 173.315223
    527   0.000000 111.198032
    738   0.000000  94.122513
   1207   0.000000  63.939212
   1621   0.000000  38.337108
    457   0.000000  97.499811
   1452   0.000000  66.333263
   1754   0.000000 168.702851
   1181   0.000000 113.505278
    564   0.000000  55.314066
    782   0.000000  57.182460
   1006   0.000000  68.163449
   1976   0.000000 155.569537
   1450   0.000000  85.287003
    848   0.000000 118.433594
   1786   0.000000 103.416278
   1122   0.000000 145.891009
   1834   0.000000  70.728616
    791   0.000000 103.465255
    207   0.000000  58.908818
    699   0.000000 174.052592
   1227   0.000000  56.665200
    687   0.000000 123.068768
   1619   0.000000  62.289451
   1838   0.000000 123.989945
   2029   0.000000 138.624009
    652   0.000000  98.338622
    236   0.000000  55.548472
   1535   0.000000 166.570304
    333   0.000000 152.579574
    189   0.000000 159.366184
   1242   0.000000  96.904621
    639   0.000000  62.997185
   1602   0.000000 103.531238
    860   0.000000 116.800518
   1153   0.000000 138.146986
     35   0.000000  37.387096
     33   0.000000 163.735595
    982   0.000000 157.180531
    498   0.000000 140.728145
   1132   0.000000 117.277006
    799   0.000000  80.280089
    618   0.000000  39.940677
   2014   0.000000 139.683010
    273   0.000000 168.855714
   1423   0.000000  78.221748
    843   0.000000 124.274668
   1509   0.000000 167.975827
   1482   0.000000 123.269986
   1163   0.000000 114.194208
   1063   0.000000 138.414872
   1441   0.000000  45.881107
   1720   0.000000  69.964541
    463   0.000000  42.655562
   1012   0.000000 140.293043
   1478   0.000000  48.900329
   1727   0.000000 117.311160
    972   0.000000  36.640366
   2048   0.000000 127.076379
   1019   0.000000 112.868809
   1832   0.000000  57.272059
   2033   0.000000 158.525348
    861   0.000000 107.396964
    504   0.000000 139.089097
   2036   0.000000  59.623565
   1514   0.000000  88.177456
    176   0.000000  76.289490
   1988   0.000000  56.474328
     71   0.000000  82.299511
   1362   0.000000  60.121641
    349   0.000000 177.627510
    318   0.000000  50.484708
   2024   0.000000 159.903083
     92   0.000000 156.841473
   1670   0.000000 116.110930
     85   0.000000 132.014872
    217   0.000000 150.730971
   1187   0.000000  38.745025
    418   0.000000 158.495371
    829   0.000000  50.338992
   1758   0.000000 126.302180
   1749   0.000000  55.346064
    544   0.000000  57.106327
    632   0.000000 165.483880
   1152   0.000000  36.524891
   2000   0.000000 135.044955
   1985   0.000000  83.713746
   1196   0.000000 124.919075
    919   0.000000  71.292947
   1272   0.000000 177.110093
   1279   0.000000  37.917223
   2078   0.000000  66.013978
    750   0.000000  87.657664
   1462   0.000000  46.715459
   2009   0.000000  85.584629
   1692   0.000000 156.578494
   1654   0.000000  87.334553
    451   0.000000  79.220359
   1795   0.000000  50.587105
    283   0.000000  52.163521
   1017   0.000000 130.774070
    679   0.000000  38.390951
    277   0.000000  54.547687
   1823   0.000000  86.621604
    541   0.000000 155.618397
    616   0.000000 167.071755
   1366   0.000000  38.094444
   2010   0.000000  89.120110
   1193   0.000000 104.804146
     44   0.000000 164.566165
    845   0.000000  62.805709
   1665   0.000000  45.650293
   1446   0.000000 135.999465
   1813   0.000000  51.521827
   1414   0.000000  74.613612
   1638   0.000000  56.219725
   1197   0.000000  85.591037
    513   0.000000 102.900844
   1639   0.000000 172.766996
    638   0.000000  52.513813
   1266   0.000000 100.875963
    568   0.000000 118.128651
   1355   0.000000 129.590624
   1981   0.000000  67.536261
    255   0.000000 161.331482
    314   0.000000  87.918803
    482   0.000000 120.471458
   1007   0.000000  82.362987
   1877   0.000000 140.448786
   1203   0.000000 116.186521
     55   0.000000 118.460464
    116   0.000000 160.917918
   1656   0.000000 174.590986
   2023   0.000000  67.638732
    448   0.000000  72.599043
   2111   0.000000  57.866200
    978   0.000000 149.869388
   2093   0.000000  55.102718
    916   0.000000 121.155158
   1056   0.000000 156.704811
    617   0.000000  26.070960
    381   0.000000  75.247315
      5   0.000000 162.642195
   1522   0.000000 166.876201
    460   0.000000  74.727761
   1865   0.000000 138.201948
    378   0.000000  39.126707
    126   0.000000 156.811965
   1611   0.000000  55.730554
   1513   0.000000 151.080297
    216   0.000000 170.671553
    149   0.000000  93.093307
    994   0.000000 169.375832
    684   0.000000 127.339368
    376   0.000000 113.975788
   2113   0.000000 154.836161
   1245   0.000000 172.254375
   1713   0.000000  81.371584
   1997   0.000000 116.561188
     46   0.000000 103.001646
   1248   0.000000  63.177318
   2072   0.000000  54.292947
   1763   0.000000  46.928116
   1798   0.000000 177.282169
   1772   0.000000  49.264452
   1615   0.000000 129.298780
    975   0.000000  52.950081
    729   0.000000  40.742566
   1039   0.000000  76.435755
   2082   0.000000  31.997742
   1862   0.000000 120.986545
   1875   0.000000  47.384660
    497   0.000000 140.144380
   2050   0.000000 130.955431
   1068   0.000000 124.586126
    956   0.000000 108.121467
   1721   0.000000 134.363642
   1412   0.000000 161.546871
   1491   0.000000 144.587563
     93   0.000000 108.140679
    598   0.000000 175.171307
   1728   0.000000  52.912059
    999   0.000000  51.712560
   1360   0.000000  77.600961
   1540   0.000000 101.956054
   1983   0.000000 124.010589
   1889   0.000000 131.226269
   1211   0.000000  49.977602
    588   0.000000 150.892957
    324   0.000000 109.176411
    560   0.000000  95.616777
    931   0.000000 150.453674
   1380   0.000000  52.722657
    412   0.000000  57.629676
   1343   0.000000 176.627021
    114   0.000000 107.214488
   1144   0.000000 155.189571
   1253   0.000000 123.050217
    823   0.000000  47.549027
    533   0.000000 111.391858
   2109   0.000000 161.714538
     83   0.000000  48.770261
   1172   0.000000 110.008892
   1306   0.000000 113.800994
   1549   0.000000 105.804250
    301   0.000000 125.976253
   1484   0.000000  70.318153
   1043   0.000000 142.211970
   1637   0.000000 173.059434
    932   0.000000  81.775204
    865   0.000000 162.387451
   1425   0.000000 105.056493
    165   0.000000  52.728134
   1325   0.000000 111.075642
   1931   0.000000  85.819087
    876   0.000000 118.028922
   1501   0.000000 109.564064
    224   0.000000 171.701424
    748   0.000000  67.494739
    621   0.000000 154.257469
    821   0.000000  87.434363
   1459   0.000000  97.673459
   1949   0.000000 138.098189
    268   0.000000 146.481792
    297   0.000000  88.435466
    762   0.000000 123.465638
   2002   0.000000 167.016467
   2101   0.000000  94.612436
   1239   0.000000 168.027981
    966   0.000000  65.626118
   1209   0.000000 113.916814
   1669   0.000000  70.637384
   1166   0.000000 160.142788
    240   0.000000 126.912801
    584   0.000000 102.227787
    516   0.000000  53.360964
    428   0.000000 116.246919
    353   0.000000  64.246332
    995   0.000000  40.097732
    399   0.000000  71.073288
   1574   0.000000 146.020648
    254   0.000000  45.643458
     49   0.000000  50.922941
   1594   0.000000 128.046598
     22   0.000000 132.090860
     34   0.000000 133.154107
    512   0.000000  78.464816
   1680   0.000000  89.001899
   2011   0.000000 131.196880
   1588   0.000000 125.963270
   1593   0.000000  64.933398
    832   0.000000 122.557405
     51   0.000000 150.017040
   1576   0.000000 108.455907
   1894   0.000000  77.634200
    770   0.000000  51.039338
    613   0.000000  75.319758
   1633   0.000000  78.559318
   1185   0.000000  86.174051
   1675   0.000000 173.589143
   1845   0.000000  94.258357
   2037   0.000000  65.333470
    696   0.000000  33.360196
    858   0.000000  65.638618
    386   0.000000 128.418041
   1013   0.000000 171.269841
    180   0.000000  38.714951
    309   0.000000 171.052093
   1826   0.000000 127.452919
   1898   0.000000 147.421911
    439   0.000000 161.550228
   1000   0.000000 157.761003
   1745   0.000000 161.722245
    404   0.000000  50.283584
     91   0.000000  48.700794
   1872   0.000000 153.974402
    830   0.000000 102.459205
   1954   0.000000  87.826396
   1397   0.000000  84.025745
   1867   0.000000  50.610636
    229   0.000000  45.702462
    230   0.000000  63.698377
     28   0.000000  84.368302
    859   0.000000 173.035582
    154   0.000000 110.095675
    635   0.000000 157.961205
   1422   0.000000 176.721759
     96   0.000000  75.688767
   1020   0.000000  48.437116
    669   0.000000  34.052656
    379   0.000000 132.835623
   2090   0.000000  60.956291
   1420   0.000000 166.550559
    269   0.000000 114.308028
   1724   0.000000 177.306188
    251   0.000000  53.416756
     43   0.000000  87.614950
   1515   0.000000  78.698745
    819   0.000000 170.106432
   1690   0.000000  71.298212
   1145   0.000000  61.522107
    871   0.000000  68.560025
    487   0.000000 117.587908
    563   0.000000 154.652470
   1252   0.000000 101.211879
   1704   0.000000  66.950339
    188   0.000000 111.391367
    209   0.000000 165.252639
   1545   0.000000  61.147020
   1835   0.000000 104.457074
    203   0.000000 120.864827
   1143   0.000000 162.414055
   1002   0.000000 147.899255
   1323   0.000000  64.255705
   1697   0.000000  53.314881
   1305   0.000000  82.315561
   1358   0.000000 173.100524
   1183   0.000000 139.267202
    197   0.000000 140.306565
    905   0.000000  76.356151
    881   0.000000 164.048636
   1584   0.000000 169.511863
     10   0.000000 113.966298
   1907   0.000000 163.459469
    857   0.000000 157.674479
   1126   0.000000  58.533943
   1895   0.000000  69.787711
    912   0.000000 114.311275
   1205   0.000000  65.672121
   1502   0.000000  47.229043
   1586   0.000000  98.982939
   1658   0.000000  47.820937
   1940   0.000000 122.766821
    815   0.000000  40.853177
   1406   0.000000 179.516126
     66   0.000000 102.463599
   1743   0.000000  47.361579
     77   0.000000 158.618217
   1718   0.000000 112.729272
   1431   0.000000 160.817548
   1157   0.000000  74.155577
    144   0.000000  57.029702
    422   0.000000  45.081913
   1652   0.000000 163.828174
   1130   0.000000 138.817516
   1273   0.000000 152.791052
   1390   0.000000  58.959263
   2062   0.000000 146.743892
    278   0.000000 156.639667
   1324   0.000000  95.210270
    677   0.000000 108.385553
    570   0.000000  91.837885
   1297   0.000000 131.653293
    472   0.000000 117.383323
   1307   0.000000 163.883446
   1392   0.000000  95.517719
   1945   0.000000 164.986963
   1198   0.000000  56.941078
    233   0.000000  71.364329
     94   0.000000 171.507222
    151   0.000000 108.797966
   1090   0.000000 132.850300
   1231   0.000000 150.565762
    134   0.000000  98.480553
    370   0.000000 127.785710
   1918   0.000000 125.263577
    510   0.000000  79.127475
    138   0.000000 170.355080
   1109   0.000000  35.156965
   1815   0.000000 121.359900
   2043   0.000000 125.678837
   1258   0.000000 132.864405
    947   0.000000  34.768470
   1761   0.000000 165.820453
    474   0.000000  33.589603
   1037   0.000000  63.944953
    671   0.000000 155.998787
   1050   0.000000  50.814029
   1791   0.000000 129.107731
    518   0.000000  80.291755
   1700   0.000000 100.075109
   2105   0.000000 161.445193
   1113   0.000000 161.951601
   1664   0.000000 161.761223
    945   0.000000  56.944176
   1570   0.000000 170.864148
    869   0.000000  63.217612
    809   0.000000 131.175488
   1124   0.000000 121.384653
    385   0.000000 114.670653
    430   0.000000 154.188480
   1864   0.000000  78.776577
   1087   0.000000 176.112607
    215   0.000000 106.973176
   1683   0.000000 170.705662
   1497   0.000000  65.175099
     79   0.000000 119.913916
    803   0.000000 117.202964
    866   0.000000  52.194010
   1629   0.000000  47.904203
   2056   0.000000  50.191826
     82   0.000000  59.370418
   1174   0.000000  74.961156
    893   0.000000  61.714661
   1731   0.000000 118.053589
    286   0.000000  51.553572
    565   0.000000  36.523819
    854   0.000000  85.525004
   1920   0.000000 166.670732
   1628   0.000000 137.089641
    395   0.000000 116.911306
      1   0.000000  48.675897
    583   0.000000 146.097925
    793   0.000000 169.028219
    569   0.000000  95.835073
   1133   0.000000  62.850711
    494   0.000000 119.351381
   1178   0.000000  99.319988
   2087   0.000000  75.389430
    636   0.000000  44.722682
   1041   0.000000  77.407322
   1036   0.000000 141.352275
   2060   0.000000  67.929342
    774   0.000000  84.409272
    190   0.000000  89.242449
   1861   0.000000 179.588084
   1641   0.000000 115.051688
   1494   0.000000  47.148541
   1561   0.000000  40.750884
   1725   0.000000 112.907087
    157   0.000000 166.933886
   1348   0.000000 117.705204
    928   0.000000 121.934532
   1352   0.000000  52.964581
   1410   0.000000  62.198484
    219   0.000000 165.721640
    341   0.000000  59.192829
    706   0.000000  51.289629
    250   0.000000 153.558183
    365   0.000000  72.226703
   1996   0.000000 123.950755
   1536   0.000000  54.028374
     58   0.000000 144.074018
    628   0.000000  96.961651
   1033   0.000000 117.864609
   1310   0.000000  98.878991
   1881   0.000000 170.680547
   1915   0.000000 167.231752
   2059   0.000000 101.618250
   1264   0.000000  63.525577
    643   0.000000 105.174725
    425   0.000000  55.833051
   1091   0.000000  61.370770
   1979   0.000000  69.779257
     26   0.000000  85.109653
     24   0.000000 116.013038
    244   0.000000  60.573582
    292   0.000000 136.306345
    205   0.000000 164.532696
   1265   0.000000 146.487300
   2094   0.000000 143.146505
   2028   0.000000 139.982375
    346   0.000000 124.093401
    701   0.000000 101.297584
    682   0.000000 178.205389
   1475   0.000000 128.329598
   1790   0.000000  58.526397
    685   0.000000 124.152048
    161   0.000000 173.483582
   1662   0.000000 103.392344
    817   0.000000  92.824160
   1503   0.000000  64.470014
   1261   0.000000 163.610018
   1377   0.000000 116.246650
   2061   0.000000 118.755435
    519   0.000000 152.890402
    493   0.000000 178.866720
   1589   0.000000  62.761276
    992   0.000000 122.460719
   1609   0.000000 155.325031
   1162   0.000000  54.291931
   1428   0.000000  79.060605
    374   0.000000  45.693017
   1620   0.000000  48.317856
   1655   0.000000  71.198642
   2045   0.000000 113.132550
    662   0.000000  62.070589
   2103   0.000000  58.135544
   1088   0.000000 112.407864
    202   0.000000 103.296629
   1240   0.000000 141.615831
   1290   0.000000  63.672661
   1548   0.000000 115.149855
   1595   0.000000 123.791148
    991   0.000000  51.949530
    264   0.000000 158.970521
   2089   0.000000  51.895794
   1626   0.000000 138.091143
    559   0.000000  54.416687
   1097   0.000000 150.490957
   1556   0.000000  40.960043
   1644   0.000000 170.714969
   1463   0.000000 100.405010
   1429   0.000000  56.176494
    645   0.000000 140.516162
   1687   0.000000  48.619266
    958   0.000000  74.470501
    104   0.000000  67.081373
   1146   0.000000  98.046998
     68   0.000000  56.154619
    120   0.000000  56.788273
    582   0.000000  45.836343
    715   0.000000 146.324671
   1383   0.000000  72.852663
    906   0.000000 177.815520
    997   0.000000 119.876010
   1769   0.000000 135.710841
    700   0.000000 122.464864
    597   0.000000 122.193497
   1702   0.000000 114.659161
    549   0.000000  94.567326
   1165   0.000000  59.902277
   1883   0.000000 141.375819
     63   0.000000  87.919399
    478   0.000000  49.665163
    959   0.000000  66.509625
    661   0.000000 141.930624
   1255   0.000000  60.316162
    996   0.000000  65.713742
   1219   0.000000 139.982075
    121   0.000000 167.679170
    152   0.000000  84.268149
    954   0.000000 131.258014
    937   0.000000  87.046682
    779   0.000000 154.522718
    654   0.000000 162.283418
   2086   0.000000 127.285224
    852   0.000000  62.150885
   1921   0.000000  80.774710
    103   0.000000  40.133116
    622   0.000000 109.534787
   1937   0.000000 138.580280
   2052   0.000000  79.529007
   1848   0.000000  65.500690
   1953   0.000000 158.467367
     59   0.000000  44.447976
   1354   0.000000 106.923974
    718   0.000000 150.392060
    455   0.000000  45.641249
   1045   0.000000 139.563643
   1973   0.000000 116.592325
   1709   0.000000 139.687696
   1276   0.000000 114.873829
   1866   0.000000 110.036006
    320   0.000000  60.644624
   1364   0.000000  98.216086
    739   0.000000  78.771730
   1105   0.000000 173.105632
   1956   0.000000 172.124621
   1760   0.000000  99.065808
    179   0.000000 127.957400
    514   0.000000 157.592291
   1053   0.000000  71.898385
   1419   0.000000  88.392948
   1070   0.000000 117.562675
   2057   0.000000 176.013103
   2022   0.000000 153.737259
   1735   0.000000  62.461537
   1034   0.000000  54.051492
     80   0.000000 161.734277
   1460   0.000000  63.332071
    421   0.000000 143.764748
    270   0.000000  65.132106
    296   0.000000  45.404428
    960   0.000000 120.620519
    515   0.000000  54.691447
    695   0.000000 108.508584
   2005   0.000000  57.938578
   1843   0.000000 159.759047
    411   0.000000 101.025952
   1287   0.000000  45.339021
   1465   0.000000  52.020610
   1578   0.000000  60.761575
    413   0.000000 147.304482
    938   0.000000 127.771122
   1095   0.000000 177.104367
    465   0.000000  60.448304
   1855   0.000000 176.359920
    326   0.000000 104.047787
   1168   0.000000  61.524673
   1403   0.000000  31.691579
    212   0.000000  60.693131
   1065   0.000000  43.348523
    397   0.000000 170.801307
   1161   0.000000  63.991409
     38   0.000000 158.877308
   1685   0.000000  69.376860
    303   0.000000  53.317760
    723   0.000000 100.031155
    409   0.000000 127.354256
    359   0.000000 148.358768
   1962   0.000000  45.778373
   1040   0.000000 127.249784
     13   0.000000  31.409784
    768   0.000000  89.884830
    307   0.000000 138.463199
   1395   0.000000  96.458128
   1340   0.000000  83.832757
   1192   0.000000  65.476108
   1003   0.000000 117.426302
     40   0.000000  95.767010
   1896   0.000000 103.260082
   1016   0.000000  82.336954
     32   0.000000 164.194342
    794   0.000000  68.613160
    988   0.000000 144.637524
    310   0.000000  70.334743
   1759   0.000000  79.374064
    393   0.000000  57.588308
    585   0.000000 168.065731
   1271   0.000000 126.165337
   1477   0.000000 178.718569
    698   0.000000  75.073006
     45   0.000000 138.537891
   1094   0.000000 105.624837
   1101   0.000000 147.391484
   2044   0.000000  75.134479
   1994   0.000000 179.396826
   1564   0.000000  86.433411
    765   0.000000  33.580807
   1767   0.000000 178.439873
   1156   0.000000  65.799359
   1607   0.000000  74.798016
    147   0.000000  63.938045
   1283   0.000000 119.335026
    388   0.000000  93.708916
   1135   0.000000 179.872283
    759   0.000000 139.493257
    484   0.000000  60.661822
    222   0.000000 148.575898
    102   0.000000  70.480203
   2099   0.000000  88.043787
    281   0.000000  47.473204
    822   0.000000  92.556120
    534   0.000000  48.296483
    785   0.000000  68.203315
    963   0.000000  54.110894
    737   0.000000 171.518243
    294   0.000000 101.116844
    363   0.000000 130.283914
    970   0.000000 144.439274
   1044   0.000000  91.397941
   1711   0.000000  46.071457
    754   0.000000 106.480477
   1251   0.000000  46.996613
    337   0.000000  63.608925
     25   0.000000 179.123336
   2049   0.000000  61.190651
    401   0.000000 140.797868
    736   0.000000  95.471721
   1214   0.000000 151.748608
   1069   0.000000  81.622683
    987   0.000000  95.020561
   1312   0.000000  45.415250
    773   0.000000 176.305427
   1311   0.000000 143.144192
   1869   0.000000 158.640938
   1884   0.000000  89.441107
   1632   0.000000 175.006156
    556   0.000000  64.501947
   1114   0.000000 147.108059
    464   0.000000 165.658363
   1430   0.000000 165.318890
   1737   0.000000 120.107879
   1267   0.000000 112.636737
   1897   0.000000 109.318007
    760   0.000000  78.601664
   1989   0.000000 147.958729
   2012   0.000000  80.111239
    150   0.000000 141.106360
    842   0.000000  72.481904
    552   0.000000 108.043391
   1499   0.000000 144.795131
    285   0.000000 161.925155
   1722   0.000000  48.089048
   1386   0.000000 121.016707
    968   0.000000 116.965850
    944   0.000000 114.715045
   1729   0.000000 124.635251
    221   0.000000 109.978422
    730   0.000000 132.151677
    831   0.000000  77.550312
    650   0.000000  49.240408
    756   0.000000  98.367120
   1235   0.000000  45.295907
   1916   0.000000 150.449598
    371   0.000000 111.796367
   1458   0.000000 161.921531
   1923   0.000000 128.621100
   1027   0.000000  46.668300
    466   0.000000 113.737063
   1004   0.000000  92.047261
    185   0.000000  66.891740
   1129   0.000000  41.054767
   1370   0.000000 145.003601
    481   0.000000 115.881534
   1030   0.000000 156.289142
   1067   0.000000  72.914209
   1756   0.000000  96.978054
   1968   0.000000  74.541570
    423   0.000000  54.200147
    280   0.000000 103.723609
    304   0.000000  88.542157
   1210   0.000000 114.202146
   1346   0.000000 111.777020
   1504   0.000000 133.790125
   2016   0.000000  64.970458
   1341   0.000000  85.532227
   1008   0.000000  94.674442
   1568   0.000000  97.002604
   1055   0.000000 166.964734
    531   0.000000 106.344231
   1993   0.000000 139.448360
    745   0.000000 136.748842
   1816   0.000000 114.222226
   1630   0.000000  58.530323
    501   0.000000  67.325149
    816   0.000000  51.970983
   1171   0.000000  56.168646
   1901   0.000000 128.420345
     87   0.000000  71.143655
    615   0.000000 141.000794
   1387   0.000000 129.572175
   1359   0.000000 112.978883
   1640   0.000000 133.065306
   1712   0.000000 160.360153
    358   0.000000  36.562401
   1169   0.000000 155.488634
    943   0.000000 154.398529
   1571   0.000000 123.459266
   1766   0.000000  88.782725
    502   0.000000 115.315728
    820   0.000000 119.767440
    656   0.000000 105.976172
    272   0.000000 138.980765
   1903   0.000000 119.642311
    882   0.000000 119.013744
   1188   0.000000  69.082640
    837   0.000000 134.983391
    888   0.000000  55.414619
    429   0.000000  54.906420
     88   0.000000  53.663065
    509   0.000000  98.894307
    891   0.000000  76.937621
   1972   0.000000 173.628418
   1288   0.000000 118.596495
   1479   0.000000 172.170315
   2079   0.000000 163.564643
   1208   0.000000 178.141358
    373   0.000000  43.513596
   1928   0.000000 154.676134
    778   0.000000  55.237417
   1942   0.000000  79.442033
    362   0.000000  46.011799
   1802   0.000000  82.254920
     14   0.000000  93.606890
    452   0.000000 136.941190
    757   0.000000  54.873111
    735   0.000000  59.326320
   1233   0.000000 116.419267
   1852   0.000000 174.958317
   1010   0.000000 150.526437
   1771   0.000000  45.849286
    148   0.000000 129.128069
   1703   0.000000  73.155747
    630   0.000000  68.247385
   1418   0.000000  88.328811
   2040   0.000000 177.620737
    850   0.000000 179.415521
    841   0.000000 173.574447
   1330   0.000000 153.714088
   1562   0.000000  88.155767
    479   0.000000 151.686076
   2007   0.000000 123.307916
   1086   0.000000  51.037094
   1679   0.000000  59.548080
    291   0.000000 179.337383
   2107   0.000000 132.045061
    480   0.000000  62.398889
   1147   0.000000  42.396374
   2077   0.000000 130.944586
   1696   0.000000 166.579033
   2080   0.000000 131.504749
   1794   0.000000  52.432521
    691   0.000000  54.455242
    243   0.000000 107.651507
    728   0.000000 118.138297
   1496   0.000000  98.190265
    105   0.000000 170.676368
   1075   0.000000  51.671917
    343   0.000000 174.426932
   2117   0.000000  76.558657
   1483   0.000000 174.837061
    305   0.000000  63.283255
   1472   0.000000  99.342400
     37   0.000000  63.110298
    646   0.000000  91.275754
   1824   0.000000 155.422239
   1521   0.000000 112.621059
   1882   0.000000  75.196181
   1819   0.000000  62.700399
   1853   0.000000  84.248533
    640   0.000000 156.486653
    377   0.000000  53.170727
    798   0.000000 100.415059
   1356   0.000000 159.888555
    909   0.000000 124.533567
   1308   0.000000  71.362355
   1337   0.000000 147.484708
   1107   0.000000  99.834042
   1555   0.000000 158.318504
   2073   0.000000  93.275960
    573   0.000000 138.786413
   1009   0.000000  55.851994
   2021   0.000000  72.343643
   1924   0.000000 145.482879
    456   0.000000 118.661737
    523   0.000000  99.529439
   1926   0.000000  85.896021
    119   0.000000  42.270118
   1604   0.000000  72.557456
    609   0.000000 121.412183
    672   0.000000  57.224709
    713   0.000000  53.151616
    743   0.000000 145.855427
    904   0.000000 127.633182
    548   0.000000  62.117692
    814   0.000000 149.656870
    118   0.000000 108.211909
   1714   0.000000 106.023607
   1526   0.000000 117.157983
   2065   0.000000  94.500673
   1747   0.000000 104.075903
   1060   0.000000 148.969847
   1779   0.000000  50.073260
   2047   0.000000 171.732970
    437   0.000000  93.304382
    344   0.000000 110.180600
   1212   0.000000  64.224544
    299   0.000000 100.405750
   1295   0.000000 136.839153
    171   0.000000 131.244236
    847   0.000000 124.956593
   1857   0.000000  99.391547
    553   0.000000 101.025766
   1134   0.000000  44.776208
   1797   0.000000  74.262543
   1011   0.000000  57.956090
   1841   0.000000 128.319951
    298   0.000000  43.031038
    347   0.000000 115.234103
    648   0.000000  42.177539
   1051   0.000000 126.223726
   1567   0.000000  73.861544
    357   0.000000  47.709713
   2119   0.000000  82.382899
   1160   0.000000 156.053656
    867   0.000000  65.834912
   1520   0.000000  56.941132
   1959   0.000000 100.048983
    492   0.000000  59.515339
    128   0.000000  92.297139
   1597   0.000000 167.020004
    507   0.000000 103.513402
   2114   0.000000  78.277504
    838   0.000000  45.007092
    902   0.000000 177.355891
   2027   0.000000  81.393616
    496   0.000000  37.214743
    354   0.000000  62.393408
   1232   0.000000  53.661141
   1256   0.000000 153.196538
   1674   0.000000  84.587244
   1668   0.000000 117.494071
    903   0.000000  54.551299
    127   0.000000  58.184888
   1137   0.000000 107.626919
   1625   0.000000 115.474331
   1372   0.000000  51.862066
    884   0.000000  63.787217
    199   0.000000  98.828607
    708   0.000000 110.874403
   1552   0.000000 139.045895
   1899   0.000000 168.523554
   1624   0.000000  59.531825
   1892   0.000000  61.438559
    637   0.000000  97.236495
   1622   0.000000  86.654964
   1991   0.000000  82.795941
   1782   0.000000 161.176404
   1026   0.000000 109.620842
    722   0.000000  95.944611
   1314   0.000000 170.241346
   1963   0.000000 108.690178
   1910   0.000000 139.022781
    920   0.000000 123.272542
   1751   0.000000  41.631990
   1649   0.000000 138.456519
   1970   0.000000  87.838138
   1978   0.000000  41.828894
   1550   0.000000  52.514254
   1142   0.000000 167.004092
   1525   0.000000  73.279825
    707   0.000000 102.877357
   1803   0.000000 166.207191
    517   0.000000 152.373119
   1481   0.000000 119.218482
   1123   0.000000  80.283573
    348   0.000000  50.987771
    625   0.000000  60.999554
    703   0.000000 152.587213
    914   0.000000  49.862211
   2013   0.000000 154.090568
    772   0.000000 121.068009
   2115   0.000000 127.379344
   2116   0.000000 156.061999
    129   0.000000 150.482026
    663   0.000000  84.705915
   2108   0.000000  74.178862
   1001   0.000000 174.410248
     36   0.000000 111.437356
    449   0.000000  91.299941
    758   0.000000 178.338749
   1393   0.000000 146.194438
   1294   0.000000  76.729458
     12   0.000000 144.105250
    447   0.000000  71.239409
   2102   0.000000 124.375945
     86   0.000000 179.284334
   1693   0.000000  66.503924
    146   0.000000 174.033720
   1470   0.000000 150.610070
   1373   0.000000  61.091679
   1599   0.000000  40.269382
    177   0.000000 172.457028
     52   0.000000  56.895945
    124   0.000000 110.890897
    382   0.000000  95.553992
    204   0.000000  44.387811
   1317   0.000000  50.584680
   1038   0.000000 156.491404
   1726   0.000000  64.640223
     65   0.000000  76.286512
    899   0.000000 106.287958
    231   0.000000 102.295853
    525   0.000000  72.081364
    605   0.000000  50.732703
    747   0.000000  48.529571
    724   0.000000  93.173054
     54   0.000000 102.164074
   1442   0.000000  79.744670
   1909   0.000000 138.032292
   1427   0.000000  26.213415
    220   0.000000  46.280045
    917   0.000000  73.410331
    426   0.000000 133.013611
   1951   0.000000 112.688994
   1932   0.000000  86.777136
   2104   0.000000 103.578993
   1400   0.000000  43.831857
    734   0.000000 127.779437
    327   0.000000 164.637416
   2088   0.000000 171.758485
    369   0.000000 118.238502
   1432   0.000000 119.437783
     16   0.000000 175.515033
    557   0.000000 149.461778
   1719   0.000000 172.724299
   1557   0.000000 117.358461
    961   0.000000 173.753363
   1975   0.000000  85.790280
    896   0.000000 112.621519
   1190   0.000000 173.886786
   1738   0.000000 116.306057
    473   0.000000  90.930601
   1112   0.000000  64.677077
   1309   0.000000 149.463671
     57   0.000000  40.599555
   1035   0.000000  63.813117
    328   0.000000 149.893297
    930   0.000000 168.821886
    599   0.000000 138.275892
   1573   0.000000 153.217777
   1103   0.000000 108.428555
   1042   0.000000  62.156321
   1417   0.000000 137.652779
    600   0.000000  52.977810
    633   0.000000 104.802300
    312   0.000000 110.371244
    506   0.000000 177.359123
    184   0.000000  37.574538
    660   0.000000 163.943538
    536   0.000000  49.274166
    383   0.000000  92.297434
    194   0.000000  78.371537
   1651   0.000000  84.288821
   1182   0.000000  53.840246
   1062   0.000000 115.963804
   1698   0.000000 173.230856
   1880   0.000000 118.745835
    839   0.000000 110.768739
    705   0.000000  59.584773
   1825   0.000000  70.180861
   1863   0.000000 171.187417
   1220   0.000000 172.717272
    201   0.000000  55.160739
     23   0.000000  47.722557
    572   0.000000 146.036276
   1435   0.000000  81.756943
   2106   0.000000  66.240401
    160   0.000000  97.539280
   1885   0.000000 175.074527
   1488   0.000000 168.263896
    483   0.000000 179.986797
    368   0.000000 163.931519
    295   0.000000  58.085807
   1820   0.000000  74.365284
   1944   0.000000  86.926386
    810   0.000000 172.028665
    302   0.000000  38.057449
   1793   0.000000 126.695064
   1579   0.000000 152.266773
    436   0.000000  36.122717
     76   0.000000 151.313919
    964   0.000000 119.737012
   1155   0.000000 125.701636
   1302   0.000000 125.557171
   1332   0.000000  48.338159
    542   0.000000  48.638006
   1024   0.000000 116.357121
   1860   0.000000  70.375909
    508   0.000000 153.585754
    168   0.000000 102.111055
    198   0.000000  37.009936
   1468   0.000000  48.384400
   1585   0.000000 162.971358
   1987   0.000000 155.566943
    170   0.000000  54.954746
   1057   0.000000  54.325341
   1449   0.000000 169.081507
    934   0.000000  66.956066
   1177   0.000000  68.025537
   1415   0.000000  50.719520
    175   0.000000  93.669698
    716   0.000000 138.756760
    591   0.000000 105.901291
   1634   0.000000 108.381247
    940   0.000000  56.117956
    537   0.000000  93.625905
    352   0.000000  58.279089
   1136   0.000000  72.500798
   1281   0.000000  82.965562
    658   0.000000  56.307245
   1275   0.000000  58.149259
    935   0.000000 165.272812
   1121   0.000000 106.482072
   1569   0.000000  49.597722
    601   0.000000  99.530611
    431   0.000000 171.153339
    135   0.000000  87.512330
    804   0.000000  47.635989
   1531   0.000000 146.485182
   1878   0.000000 103.316990
   1456   0.000000  40.189975
     61   0.000000 113.462383
    235   0.000000 126.245191
    443   0.000000 129.427100
   1486   0.000000  52.951834
   1466   0.000000 151.363010
    631   0.000000 112.970067
   1787   0.000000  46.873715
    868   0.000000 113.259810
     84   0.000000  78.351807
   1149   0.000000  99.538947
   1349   0.000000  64.740623
   2054   0.000000 132.560473
    408   0.000000  69.724580
   2069   0.000000 119.662547
    453   0.000000  51.858562
   1935   0.000000  97.489028
   1018   0.000000 172.961149
    577   0.000000 166.465522
    400   0.000000  60.546504
   1083   0.000000  64.062662
    419   0.000000  87.931698
    692   0.000000  54.053341
    459   0.000000 135.176065
   1672   0.000000 171.868545
   1298   0.000000  58.433541
   1374   0.000000  55.154971
   2092   0.000000  53.883110
   1906   0.000000  56.586210
    641   0.000000 154.272939
    749   0.000000 173.975215
   1543   0.000000 166.951270
    980   0.000000  69.587548
    313   0.000000 107.768838
    874   0.000000 131.777637
    910   0.000000 174.395778
    213   0.000000  64.728248
   1999   0.000000  59.908769
    342   0.000000  64.900571
   1230   0.000000  67.818407
   1080   0.000000  35.939992
   1316   0.000000 116.777605
    924   0.000000  40.159328
   1315   0.000000  71.781837
    949   0.000000 142.898693
    335   0.000000  45.469287
   1445   0.000000 118.369046
   2001   0.000000  69.675616
   1128   0.000000 158.331773
   2032   0.000000 156.635696
   2035   0.000000 104.462521
      6   0.000000 162.406073
    196   0.000000 122.039406
    603   0.000000  70.679480
    898   0.000000 116.471032
     17   0.000000  50.498360
    939   0.000000 170.833001
    626   0.000000 165.801854
   1322   0.000000 171.440558
    923   0.000000 165.434511
    444   0.000000 150.459768
   1285   0.000000  46.168534
   1401   0.000000 129.779816
    927   0.000000 110.294346
   1194   0.000000 169.604817
   1262   0.000000 164.401540
    619   0.000000 137.495146
     97   0.000000 118.012575
    990   0.000000 117.663272
   1914   0.000000  67.504671
   1563   0.000000 160.294955
   1905   0.000000  76.898220
    788   0.000000  31.081986
   1054   0.000000 149.686743
   1085   0.000000  41.562175
    913   0.000000  51.123236
   2042   0.000000  64.488186
    288   0.000000 139.989038
    851   0.000000 113.943649
    877   0.000000  61.065799
    193   0.000000 145.789920
   1518   0.000000  62.902842
   1982   0.000000  88.030682
    670   0.000000 149.741498
    586   0.000000  56.391443
   1842   0.000000  56.494359
   1319   0.000000 104.048421
    673   0.000000  88.178494
    384   0.000000 173.993650
   1200   0.000000 123.184655
    339   0.000000 109.078212
   1318   0.000000  67.392136
   1768   0.000000  86.446389
    587   0.000000 111.674288
   1259   0.000000  62.734055
   1773   0.000000  65.656039
    367   0.000000  84.272114
    802   0.000000 179.304852
   1433   0.000000 135.237099
   1667   0.000000 126.394999
    889   0.000000 132.352239
   1831   0.000000  77.124841
   1077   0.000000 169.523117
   1108   0.000000 111.951094
   1689   0.000000  83.504027
   1661   0.000000  98.074461
    155   0.000000  56.838211
    356   0.000000  93.721512
     19   0.000000 125.016674
    918   0.000000 120.033409
   1084   0.000000 135.542192
   1528   0.000000  46.944514
   1830   0.000000 134.396900
    836   0.000000 179.990483
   1351   0.000000 135.370822
   1438   0.000000 143.005958
    693   0.000000  66.927150
   1646   0.000000 104.996210
   1238   0.000000  71.123360
   1605   0.000000 109.113291
    976   0.000000 122.537629
   1565   0.000000 102.702440
     67   0.000000 106.222482
    883   0.000000  57.299083
   1453   0.000000 171.964753
   1407   0.000000  85.947959
    248   0.000000 107.914726
   1904   0.000000  63.056101
    546   0.000000 159.688341
   1596   0.000000  43.228856
    895   0.000000 167.172817
   1476   0.000000  76.762523
   2071   0.000000 139.869995
   1100   0.000000 115.333992
   1284   0.000000 122.068478
    727   0.000000  53.379946
    784   0.000000 144.114868
    567   0.000000 150.033464
    595   0.000000 103.205752
    926   0.000000 151.018786
   1361   0.000000  74.884438
    892   0.000000 138.652281
   1529   0.000000 146.377230
     48   0.000000 107.818886
    396   0.000000  72.287387
   1059   0.000000  40.741008
    122   0.000000 109.494282
    717   0.000000  50.360905
   1613   0.000000  81.756805
   1618   0.000000 148.944415
    468   0.000000 177.831627
   1678   0.000000 117.997188
   1723   0.000000  59.995028
   1328   0.000000  46.819938
    690   0.000000 121.382393
    951   0.000000 159.330438
    720   0.000000 170.882335
   1394   0.000000 138.282125
    936   0.000000  40.724440
    300   0.000000 163.689005
    915   0.000000 169.895620
    580   0.000000  56.926222
    908   0.000000  51.277031
    929   0.000000  83.497608
    655   0.000000  49.098214
    435   0.000000 129.313007
   1250   0.000000  54.215266
   1886   0.000000  51.934712
   1223   0.000000 106.646424
    360   0.000000 165.948215
   1682   0.000000  58.449108
    872   0.000000 112.345254
    521   0.000000 154.265917
    391   0.000000 134.680699
    540   0.000000  36.519578
   1096   0.000000  57.771640
    664   0.000000 129.890881
   1684   0.000000 140.675072
    262   0.000000  95.924143
     50   0.000000 169.383405
   1808   0.000000  73.107524
   2031   0.000000  91.302226
   1180   0.000000 167.345525
   1365   0.000000 169.420156
   2034   0.000000 169.795991
    818   0.000000 133.845500
    183   0.000000  51.667911
   1338   0.000000  63.651951
    576   0.000000  81.860190
    252   0.000000  42.507386
   1299   0.000000 176.009288
   1554   0.000000 179.994062
   1490   0.000000  79.412465
   1014   0.000000 115.005060
   1076   0.000000 154.536892
   1151   0.000000  57.142573
    732   0.000000 138.098050
    805   0.000000  62.101889
    812   0.000000  97.685887
    855   0.000000 151.163621
    398   0.000000 110.830088
    239   0.000000  54.880862
    629   0.000000  36.554915
   1627   0.000000  48.849422
    863   0.000000  56.235064
   1159   0.000000  96.151379
   1191   0.000000 100.522177
    796   0.000000  48.589804
     73   0.000000  26.177086
    771   0.000000 167.055582
    596   0.000000 149.758553
   1778   0.000000 148.750336
   1950   0.000000  50.271793
   1681   0.000000 147.451007
    489   0.000000 123.647007
    561   0.000000 172.545338
    611   0.000000  71.516063
    856   0.000000 101.439415
   1541   0.000000 145.502016
    100   0.000000  93.505177
   1580   0.000000  44.761869
   1676   0.000000 127.961749
   1021   0.000000 104.701897
   1385   0.000000 143.465574
    681   0.000000  62.656550
   1102   0.000000 151.737403
   1986   0.000000  64.244983
   1551   0.000000  64.844208
   1753   0.000000 123.381896
   1489   0.000000 117.222172
    366   0.000000 173.797509
   2121   0.000000 158.908587
    427   0.000000  33.731551
    921   0.000000  48.740463
    761   0.000000  88.453919
    593   0.000000  71.965555
     56   0.000000 159.060018
    470   0.000000 174.185367
     11   0.000000 148.918030
   2053   0.000000 178.852743
   1353   0.000000 177.444795
   1544   0.000000  77.898876
    450   0.000000  39.441379
   1812   0.000000 138.206501
   1140   0.000000 109.861520
     27   0.000000  63.714799
    274   0.000000  49.175922
   1278   0.000000  94.641793
    174   0.000000 177.087853
   1995   0.000000  64.041986
    885   0.000000 119.201836
   2098   0.000000  68.357949
    471   0.000000 140.595764
   1807   0.000000  85.089103
    454   0.000000 170.520300
   1048   0.000000  80.055649
    232   0.000000  38.597476
   1590   0.000000  61.029872
   1707   0.000000 140.106086
   1643   0.000000 116.547271
     47   0.000000  62.402091
   1969   0.000000 114.555865
   2058   0.000000  82.368647
    612   0.000000  65.681036
    786   0.000000 112.419877
   1796   0.000000 132.842025
   1434   0.000000 115.620506
   1104   0.000000  39.786309
    375   0.000000  68.282771
   1327   0.000000 159.465975
   1344   0.000000  65.667775
   1378   0.000000 168.969308
    334   0.000000 154.923721
    372   0.000000 157.489384
    675   0.000000 146.776504
    153   0.000000  48.233387
   1879   0.000000  99.878346
   1512   0.000000  62.335021
    825   0.000000 106.387060
    709   0.000000 162.462131
   1179   0.000000  45.479741
    167   0.000000 141.705272
   1648   0.000000  57.715308
    873   0.000000 110.193441
   1093   0.000000  71.479530
    571   0.000000  54.198390
   1507   0.000000  69.320111
   1840   0.000000 175.185690
    241   0.000000 173.990725
    259   0.000000 177.205420
   1379   0.000000  46.887682
   2076   0.000000  65.490771
    901   0.000000 126.078860
   1221   0.000000 116.052073
    178   0.000000 120.651233
   1202   0.000000 173.162257
   1742   0.000000 114.360666
    835   0.000000  72.218413
   1805   0.000000  93.099667
   1821   0.000000 161.216842
   1339   0.000000 126.983065
   1270   0.000000  94.144532
   1277   0.000000  45.048338
   1912   0.000000  54.735956
    844   0.000000  55.627885
   1326   0.000000 159.413802
    329   0.000000  48.531787
    590   0.000000 158.879101
    704   0.000000 155.825059
   1752   0.000000  71.724798
   2091   0.000000 112.852085
   1893   0.000000 179.105717
   1908   0.000000 139.954321
   1757   0.000000  67.915253
   1701   0.000000 119.818805
    442   0.000000 137.382611
   1519   0.000000 130.220958
    111   0.000000  28.737082
   1635   0.000000 106.434526
     90   0.000000 149.495462
   2038   0.000000 110.172427
   1817   0.000000  98.516443
    394   0.000000 131.610385
    416   0.000000  68.930770
    680   0.000000 176.205845
    833   0.000000 152.798197
    776   0.000000 115.491258
   1694   0.000000 120.265220
     70   0.000000  69.014408
   1799   0.000000 100.462911
   2068   0.000000  74.500395
    355   0.000000 126.639740
    644   0.000000  99.750889
    746   0.000000  36.145401
    163   0.000000  71.372527
   1120   0.000000  73.390211
    607   0.000000 142.195542
    566   0.000000 109.512457
    911   0.000000  65.570813
   1547   0.000000 102.107062
    317   0.000000  91.375210
   1913   0.000000  82.944927
   1770   0.000000  95.113738
   1610   0.000000 104.048410
   1106   0.000000  89.619845
    432   0.000000  89.564601
   1313   0.000000 139.173973
    311   0.000000 158.253546
    900   0.000000  51.736660
   1706   0.000000 178.390500
    551   0.000000 167.862026
   1642   0.000000  48.776485
    678   0.000000 145.403204
   1941   0.000000 172.471316
   1061   0.000000  72.615281
    627   0.000000 149.475464
   1746   0.000000  57.646342
   1847   0.000000  76.779168
   1176   0.000000 171.533566
      4   0.000000  72.341132
     75   0.000000 132.441131
   1471   0.000000 110.047529
   1141   0.000000 156.471017
   2039   0.000000  44.838956
   1234   0.000000 173.088263
   1829   0.000000 145.925476
   1614   0.000000 177.616636
   1606   0.000000 176.088694
   2123   0.000000  88.049070
   1600   0.000000 149.382673
   1804   0.000000 108.703706
   1139   0.000000  67.465145
    925   0.000000  43.338280
   2004   0.000000  65.369339
    265   0.000000 109.794599
   1673   0.000000  68.413669
   1659   0.000000  55.571407
   2120   0.000000 170.431970
   2030   0.000000  98.901783
   1828   0.000000 156.802465
   1777   0.000000 118.585021
   2081   0.000000  64.930607
   1189   0.000000 134.558748
    145   0.000000  44.859920
   1222   0.000000 153.947076
   1608   0.000000  73.568226
    941   0.000000 113.888825
   2100   0.000000 177.343777
    543   0.000000 151.673653
   2066   0.000000  65.369600
    140   0.000000 159.162293
   1404   0.000000  54.256380
   1933   0.000000  41.091252
    800   0.000000 142.381978
   1733   0.000000  66.871740
    287   0.000000  96.958000
   2019   0.000000 125.798193
    415   0.000000  47.316149
   1127   0.000000 166.160861
   1582   0.000000  91.505198
    169   0.000000 116.183672
   1072   0.000000  65.287282
    864   0.000000 134.394937
    702   0.000000  41.712810
   1947   0.000000  43.324789
    726   0.000000 168.522004
   1510   0.000000 174.960917
   1292   0.000000 168.237012
    538   0.000000 142.263911
   1480   0.000000 136.262610
   1744   0.000000  56.714324
    108   0.000000 160.586550
   1263   0.000000  49.111159
    133   0.000000  41.450851
    694   0.000000 175.435734
    137   0.000000 113.325378
    200   0.000000  95.918754
   1131   0.000000 113.555565
    325   0.000000 161.673115
   1780   0.000000  92.664642
   1411   0.000000 160.148738
    781   0.000000 123.440732
    276   0.000000 106.711207
    651   0.000000 113.043010
   1631   0.000000 114.529111
    790   0.000000  75.911553
   1660   0.000000 158.533195
   1437   0.000000 109.142396
   1493   0.000000 112.323639
   1851   0.000000  42.761825
   1542   0.000000 112.541930
   1260   0.000000  83.753245
    107   0.000000  53.372062
    336   0.000000 116.105629
    109   0.000000 166.298658
    407   0.000000 131.619792
    594   0.000000  50.227942
    406   0.000000  50.742368
   1167   0.000000 139.954935
    828   0.000000 178.605472
   1891   0.000000 151.139530
    550   0.000000  97.570648
    319   0.000000 141.859918
   1389   0.000000 166.130630
   1566   0.000000 150.107323
   1537   0.000000 169.093642
   1464   0.000000  98.589460
   1952   0.000000  49.777190
   1304   0.000000 120.641836
   1498   0.000000 150.734856
   2003   0.000000  81.431839
   1469   0.000000  50.958001
    979   0.000000 160.513649
   1115   0.000000  49.833535
    744   0.000000 172.894243
    159   0.000000  36.034762
    440   0.000000  69.022673
    725   0.000000 166.795791
   1492   0.000000  51.041724
    263   0.000000  44.662493
    657   0.000000 148.618368
   1225   0.000000  47.300652
   1971   0.000000  74.763430
   1854   0.000000  95.767836
    826   0.000000  46.411137
   2075   0.000000 165.837059
   1066   0.000000 170.126592
    191   0.000000 177.200144
    659   0.000000 155.074387
     72   0.000000 132.367375
    321   0.000000  43.403164
   1764   0.000000 134.632011
   1409   0.000000 112.918003
    753   0.000000  39.128093
   1280   0.000000 139.690132
   1592   0.000000 171.275454
    733   0.000000  50.383707
   1396   0.000000 169.973705
   1785   0.000000 173.997611
    475   0.000000  68.431310
   2026   0.000000  60.114542
   1558   0.000000  61.951556
   1506   0.000000 103.505813
    261   0.000000 111.050797
   1699   0.000000  58.571695
    441   0.000000  93.190289
   1371   0.000000  92.280944
   1623   0.000000 163.378534
   1553   0.000000  62.635601
   2017   0.000000  51.085641
   1455   0.000000 105.631489
    562   0.000000  41.418387
    955   0.000000 162.232361
   1859   0.000000 100.811507
   1291   0.000000 164.674047
    967   0.000000 177.408032
   1887   0.000000  43.549654
     89   0.000000 102.363859
   1965   0.000000  70.853544
    969   0.000000  91.489193
    962   0.000000  56.787513
    486   0.000000  58.072569
   1224   0.000000  49.981224
    206   0.000000 135.838543
    647   0.000000 106.440829
    719   0.000000  42.812149
   1511   0.000000 122.704062
   1992   0.000000 160.642870
    117   0.000000  50.027021
   1961   0.000000  62.911805
    195   0.000000  86.881102
   1424   0.000000 104.435163
    890   0.000000 165.933100
    403   0.000000 178.096624
   1671   0.000000  55.757615
    714   0.000000  46.879538
   1740   0.000000  68.944478
   1148   0.000000 136.063838
    308   0.000000  47.087990
    125   0.000000  52.706009
    897   0.000000  65.194001
   1440   0.000000  33.863562
    106   0.000000  23.024975
    402   0.000000 161.572456
      9   0.000000 121.017028
   1405   0.000000  93.568167
    984   0.000000 177.386456
   1436   0.000000 161.501613
   1098   0.000000  50.656915
   1058   0.000000  84.089531
   1286   0.000000 176.992313
   1784   0.000000 127.475991
   2096   0.000000 108.985828
    520   0.000000  96.428849
    267   0.000000  94.318271
   1533   0.000000  99.432717
   1801   0.000000 174.725454
   1118   0.000000  32.335444
   1321   0.000000  53.463741
   1666   0.000000 142.481162
   1320   0.000000 117.976817
   1645   0.000000  58.831963
   1538   0.000000  67.137588
    181   0.000000  96.167538
   1500   0.000000  75.475020
   1079   0.000000 117.851199
    247   0.000000  47.077924
    824   0.000000  56.048067
    742   0.000000 109.710027
   1789   0.000000 175.981446
   1922   0.000000 124.549156
   1691   0.000000 132.123294
   1485   0.000000  51.567075
    218   0.000000 125.421379
    528   0.000000 126.817843
   1329   0.000000  95.158097
   1868   0.000000  59.425371
   1047   0.000000 168.805263
    971   0.000000 145.973178
   1218   0.000000  66.070848
   1303   0.000000  43.241610
   1408   0.000000  85.535126
   2085   0.000000 156.243773
   1717   0.000000 172.604809
   1888   0.000000  95.484366
   1647   0.000000  54.167698
     60   0.000000 139.639470
   2118   0.000000  76.525687
    965   0.000000 123.297138
   1381   0.000000 163.134333
   1858   0.000000  80.592084
   1342   0.000000 169.364984
    499   0.000000 116.371011
    981   0.000000 107.798908
    676   0.000000  67.820292
   1530   0.000000  44.529128
   1199   0.000000  59.245443
   1215   0.000000  54.304316
    340   0.000000  52.496704
   1716   0.000000  93.616239
   1451   0.000000 150.728518
    751   0.000000 116.024310
   1736   0.000000 135.816218
   1839   0.000000  67.495587
   1601   0.000000 135.819311
    667   0.000000 101.872949
    787   0.000000  44.829567
   1809   0.000000 148.685975
   1363   0.000000 109.298515
   1015   0.000000  54.912719
   1241   0.000000 121.479548
    172   0.000000 132.588226
    234   0.000000 163.199978
   1810   0.000000 158.196627
   1957   0.000000  63.434443
    623   0.000000  57.020974
     42   0.000000 148.824452
    380   0.000000 167.841380
   1524   0.000000  49.718217
    792   0.000000 179.376808
     99   0.000000 104.425849
    653   0.000000  56.735764
   1184   0.000000 151.650159
    208   0.000000  92.170675
    461   0.000000 111.086872
   1715   0.000000  78.988569
   1958   0.000000 162.960787
   1788   0.000000 105.400113
   1022   0.000000 164.794238
     81   0.000000 108.071212
   1577   0.000000  44.467488
    162   0.000000  44.811146
   1900   0.000000  71.834135
   1546   0.000000 140.534476
   1487   0.000000 104.518908
    886   0.000000 163.860543
    666   0.000000  54.125838
   1246   0.000000  71.042497
    555   0.000000 156.339832
     15   0.000000  58.655158
    526   0.000000  54.736478
   1448   0.000000 102.748244
   1249   0.000000 164.389196
    293   0.000000 146.521273
     98   0.000000 148.359662
   1583   0.000000 105.523444
    462   0.000000 144.676474
   1368   0.000000 159.841427
   1078   0.000000 153.791191
   1876   0.000000 116.234224
    115   0.000000 142.293809
    445   0.000000 118.240291
    946   0.000000 102.386262
   1117   0.000000  47.948130
   1974   0.000000 162.601569
    697   0.000000 134.657779
   1049   0.000000  29.241620
   1111   0.000000 148.214864
   1335   0.000000 111.160345
      3   0.000000 112.143835
   1154   0.000000 179.993567
   1461   0.000000 146.057859
   1734   0.000000 176.822203
   1426   0.000000  78.843078
    977   0.000000  54.848827
   1447   0.000000 158.559021
   1617   0.000000 100.626559
   1967   0.000000 170.902565
   1457   0.000000  65.441514
    581   0.000000  54.748065
   1873   0.000000  93.064126
   1301   0.000000  62.208294
   1781   0.000000  68.511762
    410   0.000000 158.655628
   1204   0.000000 179.874267
    187   0.000000 133.742076
   1402   0.000000 125.259746
    387   0.000000  42.383265
    131   0.000000 159.386856
    458   0.000000 143.838452
    688   0.000000 170.004082
   1775   0.000000  83.094297
     21   0.000000  34.951732
   1523   0.000000 119.843974
    491   0.000000  55.219713
   1833   0.000000 131.552981
   1025   0.000000  60.092341
   1081   0.000000 112.049944
   2055   0.000000  51.426424
    256   0.000000  65.407339
   1874   0.000000 150.701650
    246   0.000000 131.128413
   1439   0.000000  63.261289
    331   0.000000  91.314796
    530   0.000000  56.461554
   1213   0.000000  85.677760
   1732   0.000000 177.547310
    141   0.000000 102.132591
   1150   0.000000  93.667464
    113   0.000000 137.561576
   1748   0.000000 127.070861
     95   0.000000  94.987600
    989   0.000000  49.616963
    769   0.000000 141.905079
   2110   0.000000 140.419263
   1064   0.000000  95.066349
    834   0.000000  27.211320
    614   0.000000 101.390718
    242   0.000000  70.554831
    228   0.000000  84.299938
    469   0.000000  30.482298
    755   0.000000 155.152403
   1934   0.000000  89.914749
    332   0.000000  45.845509
   1806   0.000000  45.106834
   1444   0.000000  52.035783
   1357   0.000000  70.520821
    649   0.000000 162.748074
   2018   0.000000  74.712552
   1677   0.000000 153.000913
   1052   0.000000  77.071462
   1217   0.000000 158.270168
    545   0.000000 110.755698
   1856   0.000000 179.983631
    933   0.000000 107.680506
    112   0.000000  30.347087
   1274   0.000000 162.160610
    142   0.000000 101.313495
   1282   0.000000  56.724570
   1119   0.000000 169.332783
    783   0.000000  99.285301
   1977   0.000000 111.608152
    164   0.000000  88.977138
    350   0.000000 120.672497
   1990   0.000000  96.600884
   1559   0.000000 137.753488
    741   0.000000  77.395730
   2084   0.000000  43.391688
    711   0.000000 103.512522
    789   0.000000 148.294822
   1948   0.000000 108.086651
    253   0.000000 117.387240
    592   0.000000  59.348491
   1800   0.000000 103.019626
    130   0.000000  71.874527
    433   0.000000  99.282060
   1074   0.000000  52.563917
   1421   0.000000 167.236026
    752   0.000000 137.495213
    315   0.000000 179.294013
   1708   0.000000  59.952151
   1783   0.000000  80.602276
   1919   0.000000  64.708169
   1612   0.000000 142.385518
   1092   0.000000 121.524863
    211   0.000000 151.079492
    258   0.000000  81.281278
   1495   0.000000 163.365363
   1336   0.000000  79.474672
    271   0.000000  91.507561
   2006   0.000000 143.523206
    589   0.000000  78.927402
   1705   0.000000  41.503414
   2046   0.000000  51.941899
    237   0.000000 102.626396
   2070   0.000000 126.854045
    223   0.000000  40.300262
   1870   0.000000  65.576812
   1844   0.000000 123.461786
   1616   0.000000 144.046256
    290   0.000000 135.258189
    351   0.000000 175.081171
   1201   0.000000 122.613199
    740   0.000000  42.626329
   1517   0.000000  38.459238
   1762   0.000000 144.915095
   1300   0.000000 101.675151
   1116   0.000000  97.274524
   1244   0.000000 118.039110
   1229   0.000000 138.310878
    417   0.000000 102.222569
    192   0.000000  42.493290
   1527   0.000000 169.562191
   2122   0.000000 113.042343
   1089   0.000000  70.487769
   1846   0.000000  80.699961
    123   0.000000 100.023692
   1247   0.000000 117.392583
     31   0.000000  46.981206
     29   0.000000 111.896102
   1254   0.000000 104.085379
    950   0.000000 149.483515
   1871   0.000000  50.657412
   1818   0.000000 172.881727
    642   0.000000  43.443643
    238   0.000000 125.435693
    813   0.000000  56.832709
   1226   0.000000 103.965852
    610   0.000000  97.587023
   1391   0.000000  36.558455
   1964   0.000000 100.049021
     62   0.000000  37.851536
    390   0.000000  36.120608
    275   0.000000 154.184411
    539   0.000000  58.047748
    948   0.000000  57.770870
   1236   0.000000  51.608714
   1837   0.000000  60.824365
   1686   0.000000  87.201634
   1243   0.000000 124.568307
   1739   0.000000 129.333277
   1980   0.000000 171.744427
   1005   0.000000  26.510993
   1237   0.000000  70.492471
   2112   0.000000  77.784494
    414   0.000000 124.763820
   2015   0.000000 169.231349
    806   0.000000 133.059159
   1443   0.000000  50.712461
    894   0.000000  60.884859
   1413   0.000000 147.733609
   1331   0.000000 105.375928
     53   0.000000  61.564519
   1890   0.000000  47.879448
   1925   0.000000  59.840987
    797   0.000000 116.249149
   1927   0.000000  68.780113
    438   0.000000  68.359938
   1474   0.000000 108.400416
    532   0.000000 160.029864
   1046   0.000000 140.380708
   1186   0.000000  46.846012
    322   0.000000 134.717960
   2083   0.000000  95.287482
   2074   0.000000  72.561098
   2097   0.000000 162.970385
    306   0.000000 133.617997
   1175   0.000000 117.693319
   1984   0.000000 120.719311
   1195   0.000000  39.328038
      8   0.000000  63.467938
   1296   0.000000  91.507554
   1827   0.000000  68.800635
    364   0.000000 117.919720
    775   0.000000  39.579705
   1110   0.000000  62.117559
   1929   0.000000 175.733835
   1516   0.000000 151.978570
    710   0.000000  51.587728
   1164   0.000000 105.850857
    139   0.000000  57.848798
    808   0.000000 131.138626
   1774   0.000000 175.758940
   1173   0.000000 142.986693
   1028   0.000000 164.532910
   1073   0.000000  88.503909
    602   0.000000  46.552801
    505   0.000000 166.219456
   1350   0.000000  64.850001
   1936   0.000000  48.823497
    323   0.000000  89.248673
    827   0.000000 133.598380
    101   0.000000  95.818455
    330   0.000000 101.028491
   1031   0.000000  85.846248
      2   0.000000 103.750916
   1938   0.000000 172.596223
    158   0.000000 157.031352
   1695   0.000000 125.075619
     64   0.000000 171.478006
    316   0.000000  37.434095
    524   0.000000  43.067885
   1375   0.000000 107.877628
   1755   0.000000 164.893306
   1792   0.000000  70.581334
    547   0.000000 105.744333
    424   0.000000 172.079969
   1836   0.000000 160.951433
    132   0.000000 142.764346
    136   0.000000 145.361127
   1099   0.000000  97.557949
   1293   0.000000  54.923835
   1206   0.000000 129.896665
   1966   0.000000 174.590591
   2051   0.000000  96.484096
   2025   0.000000  78.509467
    511   0.000000  23.773369
   1369   0.000000  98.749748
   2041   0.000000 107.244784
   1376   0.000000 107.979361
    257   0.000000  71.743783
     69   0.000000  95.191494
    156   0.000000  92.872973
    674   0.000000  95.615660
   1473   0.000000  59.500087
    634   0.000000 149.524982
    862   0.000000  51.161900
   1345   0.000000 118.632356
   1257   0.000000  40.559802
   1572   0.000000  47.404883
   1688   0.000000 119.917479
   1158   0.000000  41.859447
    952   0.000000  91.712646
    721   0.000000  70.851180
   2095   0.000000 122.241059
   1822   0.000000 124.417874
   1467   0.000000 161.005530
   1071   0.000000 116.959199
    210   0.000000  43.667869
   1334   0.000000 165.006899
    974   0.000000 107.997158
    405   0.000000 108.372044
   1603   0.000000 147.355471
   2020   0.000000 127.753274
    338   0.000000 161.574916
   1560   0.000000 148.384968
    579   0.000000 111.139509
   1960   0.000000 151.260840
   1814   0.000000  46.994616
    795   0.000000 110.691692
    957   0.000000  42.495349
     78   0.000000  50.067863
    389   0.000000 153.031914
    870   0.000000 173.411053
    875   0.000000  49.127642
    624   0.000000  97.554469
    249   0.000000 134.698034
    554   0.000000  53.626704
   1539   0.000000  45.404342
    683   0.000000  60.412218
    495   0.000000 104.539891
    606   0.000000 168.266503
    878   0.000000 179.094721
   1591   0.000000 105.990132
    731   0.000000  96.006276
    578   0.000000 156.975852
   1741   0.000000 173.020381
   1930   0.000000 134.642584
   1228   0.000000 105.269855
    840   0.000000  55.140853
    993   0.000000  95.949726
    266   0.000000  46.845068
    807   0.000000 164.838952
   1598   0.000000  63.261856
   1384   0.000000 157.575162
   1581   0.000000 108.750288
    186   0.000000  44.499627
    953   0.000000  67.617792
   1850   0.000000 142.279858
   1023   0.000000  56.264781
    608   0.000000 172.906781
   1398   0.000000  75.523436
    879   0.000000  44.846800
    780   0.000000 160.647714
   1776   0.000000 115.729298
    214   0.000000 105.028509
    880   0.000000 108.634017
   1170   0.000000 136.485829
    166   0.000000 168.911806
    227   0.000000 147.998315
    575   0.000000 110.074079
   1730   0.000000  64.399101
    973   0.000000  58.380195
   2064   0.000000  78.814550
   1269   0.000000 139.192870
   1911   0.000000  70.527621
    226   0.000000  86.002723
    503   0.000000  36.188253
   1367   0.000000 152.485399
    477   0.000000 102.020913
   1029   0.000000 100.719792
    998   0.000000 146.387003
    182   0.000000 163.059278
   2008   0.000000 151.107455
    574   0.000000  64.237735
    260   0.000000 153.025060
   1032   0.000000 149.659366
   1663   0.000000  71.843778
    766   0.000000  38.845492
   1653   0.000000 119.019579
   2067   0.000000 167.776355
    686   0.000000 115.548839
    689   0.000000  61.495498
    488   0.000000 123.060711
   1347   0.000000  41.256199
    665   0.000000  46.314964
    420   0.000000  99.988333
    529   0.000000 176.720604
    777   0.000000  63.885550
   1765   0.000000  39.518273
   1587   0.000000  63.988419
     18   0.000000  85.450092
     30   0.000000  48.785804
    763   0.000000  84.620146
    279   0.000000 155.887129
   1416   0.000000  86.933259
    922   0.000000 116.694049
   1939   0.000000  85.544931
   1508   0.000000 105.640806
   1534   0.000000  91.473642
    361   0.000000  80.075997
    500   0.000000  61.679564
    849   0.000000 127.622757
    282   0.000000  99.636725
   1943   0.000000 151.688248
    986   0.000000  37.976020
    942   0.000000  86.780737
     74   0.000000 177.491006
    811   0.000000  79.204505
    712   0.000000 117.730718
   1955   0.000000 109.212816
    245   0.000000 178.206337
   1333   0.000000  47.508393
   1138   0.000000  94.948910
   1902   0.000000  91.625334
   1657   0.000000 153.645868
    110   0.000000 135.951571
   1454   0.000000 106.523239
    801   0.000000  52.779070
   1710   0.000000 141.323734
    853   0.000000  51.792764
    535   0.000000 142.863809
    767   0.000000 103.059587
    225   0.000000 124.600200
   1382   0.000000 144.143010
    173   0.000000  65.696486
   1388   0.000000  70.612911
   1125   0.000000 121.338340
    446   0.000000 170.098854
    668   0.000000 111.350547
   1289   0.000000  73.166493
   1946   0.000000  64.761863
     20   0.000000  90.064941
   1399   0.000000  49.736310
   1811   0.000000  63.596872
    764   0.000000 133.474775
   1998   0.000000  56.652419

Angles # ['angleID', 'angleType', 'atom1', 'atom2', 'atom3']

         7         7        35         1        42
       143       143        69         8       114
      1849      1849        64       123       146
       289       289        23        17        65
       434       434        14        25        28
      1575      1575        13       100        47
       985       985        77        58       113
       983       983        68        58       128
      1650      1650        85       105        95
      1268      1268        58        77        68
      1917      1917        16       130       127
      1505      1505        54        95       137
       485       485         9        28        25
        39        39        26         2       149
      1750      1750         1       114       110
      1636      1636       103       104       140
       467       467        29        27       106
      1216      1216        14        73        63
      1532      1532        14        97       150
       604       604         1        35        32
       392       392        91        22       112
       620       620        18        36        65
       907       907        74        53        96
       887       887        46        52       140
       476       476        92        27       136
       490       490        25        28        82
       345       345        46        20       101
       522       522        22        30        69
       846       846        63        49        97
        41        41       107         2       149
       558       558        35        32        47
      1082      1082        12        65        23
       284       284        21        17        23
      2063      2063        40       145        84
       527       527        32        30       125
       738       738        81        42       117
      1207      1207        71        72        80
      1621      1621       110       103       140
       457       457        73        26       149
      1452      1452       125        91       129
      1754      1754         8       114       117
      1181      1181        76        70       151
       564       564        47        32        82
       782       782        56        45       152
      1006      1006       116        59       133
      1976      1976        29       136       148
      1450      1450       112        91       131
       848       848        73        49        74
      1786      1786         1       117       114
      1122      1122        79        67       141
      1834      1834         4       122       116
       791       791       108        45       152
       207       207        65        12       144
       699       699        43        40        99
      1227      1227        63        73        88
       687       687        51        39        88
      1619      1619       104       103       140
      1838      1838        59       122       119
      2029      2029       113       141       126
       652       652        70        37        94
       236       236        25        14        89
      1535      1535        49        97       139
       333       333        81        19       111
       189       189        86        11       142
      1242      1242        63        74       150
       639       639        53        37        56
      1602      1602        35       102        82
       860       860         7        50       126
      1153      1153         1        69         8
        35        35        16         2       124
        33        33        16         2        26
       982       982        68        58       113
       498       498        27        29        99
      1132      1132       113        67       126
       799       799        44        46        52
       618       618        18        36        23
      2014      2014        52       140       103
       273       273         3        16       130
      1423      1423        25        89       102
       843       843        14        49       150
      1509      1509        83        95       143
      1482      1482        12        93        66
      1163      1163        30        69        35
      1063      1063        74        63        88
      1441      1441        67        90       126
      1720      1720        22       112        91
       463       463        24        27       108
      1012      1012        24        60        29
      1478      1478        10        93        12
      1727      1727        85       112        91
       972       972        33        58        99
      2048      2048        62       143       137
      1019      1019        27        60       121
      1832      1832        60       121        98
      2033      2033        11       142       112
       861       861        90        50       119
       504       504        33        29       115
      2036      2036        22       142       112
      1514      1514        39        96        63
       176       176        22        11        54
      1988      1988        95       137       143
        71        71        50         4       127
      1362      1362        29        84        99
       349       349        51        20       101
       318       318       116        18       133
      2024      2024        67       141        98
        92        92        28         5       124
      1670      1670        25       107        26
        85        85         7         5        28
       217       217         9        13       134
      1187      1187        39        71       109
       418       418        27        24       152
       829       829       103        48       104
      1758      1758         6       115        29
      1749      1749         1       114        69
       544       544        59        31       138
       632       632        34        36       133
      1152      1152       120        68       131
      2000      2000        19       139        78
      1985      1985        61       137       101
      1196      1196        80        71       109
       919       919        95        54       137
      1272      1272        58        77       134
      1279      1279        87        77       134
      2078      2078        12       147        93
       750       750        10        43       144
      1462      1462        19        92       139
      2009      2009        97       139       111
      1692      1692        51       109        71
      1654      1654        19       106        81
       451       451        14        26       107
      1795      1795         6       118       115
       283       283       127        16       130
      1017      1017        27        60        33
       679       679        75        38       149
       277       277        15        16       130
      1823      1823        24       121        31
       541       541        41        31       152
       616       616        69        35       111
      1366      1366        99        84       145
      2010      2010        44       140        52
      1193      1193        72        71        96
        44        44         2         3        61
       845       845        63        49        74
      1665      1665         2       107        26
      1446      1446        22        91       131
      1813      1813        55       120        68
      1414      1414        39        88        96
      1638      1638        17       105        21
      1197      1197        96        71       109
       513       513        99        29       115
      1639      1639        17       105        83
       638       638        76        36       133
      1266      1266        70        76       133
       568       568        69        32       100
      1355      1355       105        83       112
      1981      1981        54       137        95
       255       255        18        15        62
       314       314        36        18       116
       482       482         5        28        47
      1007      1007       116        59       138
      1877      1877        90       126       141
      1203      1203        66        72        71
        55        55        62         3        75
       116       116         4         7         9
      1656      1656        19       106       136
      2023      2023        41       141       126
       448       448         2        26       149
      2111      2111        78       150        97
       978       978        40        58       113
      2093      2093         2       149        26
       916       916        83        54       137
      1056      1056        53        63        73
       617       617       102        35       111
       381       381         8        22       125
         5         5        19         1       114
      1522      1522        63        96        71
       460       460        24        27        60
      1865      1865        30       125       129
       378       378         8        22        30
       126       126         9         7       127
      1611      1611        42       103       117
      1513      1513        39        96        53
       216       216         9        13       129
       149       149         5         9        90
       994       994        31        59       133
       684       684        38        39        96
       376       376       105        21       143
      2113      2113        37       151        72
      1245      1245         3        75        51
      1713      1713        35       111       102
      1997      1997        59       138       119
        46        46         2         3        75
      1248      1248        20        75        51
      2072      2072        48       146       123
      1763      1763        29       115        84
      1798      1798        42       118       115
      1772      1772       136       115       148
      1615      1615        48       103       117
       975       975        40        58        68
       729       729         1        42       117
      1039      1039         3        62        61
      2082      2082        42       148        81
      1862      1862        22       125       129
      1875      1875        67       126       141
       497       497        27        29        84
      2050      2050        12       144        17
      1068      1068        44        64        72
       956       956        11        57        52
      1721      1721        22       112       120
      1412      1412        39        88        63
      1491      1491        31        94        76
        93        93       107         5       124
       598       598        65        34       135
      1728      1728        85       112       120
       999       999        76        59       133
      1360      1360         6        84       115
      1540      1540        89        97       139
      1983      1983        54       137       143
      1889      1889        58       128        67
      1211      1211        80        72       151
       588       588        12        34        36
       324       324         1        19       111
       560       560        35        32        82
       931       931        43        55       120
      1380      1380       112        85       120
       412       412        36        23        65
      1343      1343        54        83        85
       114       114       118         6       146
      1144      1144        55        68        77
      1253      1253        36        76        37
       823       823         6        48       146
       533       533        24        31        94
      2109      2109        74       150        78
        83        83         2         5       124
      1172      1172        34        70       151
      1306      1306        67        79        90
      1549      1549        41        98       113
       301       301         4        18        36
      1484      1484        12        93       147
      1043      1043        15        62        61
      1637      1637       123       104       140
       932       932        43        55       132
       865       865        20        51        39
      1425      1425        97        89       102
       165       165        12        10        93
      1325      1325         1        81       106
      1931      1931        17       132       105
       876       876        46        51        75
      1501      1501        21        95       137
       224       224        79        13       100
       748       748        10        43        40
       621       621        18        36        70
       821       821         6        48       118
      1459      1459        19        92        78
      1949      1949        13       134        77
       268       268         2        16       130
       297       297       105        17       144
       762       762        52        44        64
      2002      2002        19       139        97
      2101      2101        38       149        75
      1239      1239        53        74       150
       966       966        52        57        86
      1209      1209        71        72       151
      1669      1669         5       107        28
      1166      1166        32        69       114
       240       240        26        14        89
       584       584        60        33       113
       516       516         8        30        22
       428       428        60        24       108
       353       353        61        20        75
       995       995        31        59       138
       399       399        15        23        18
      1574      1574        13       100        32
       254       254        18        15        23
        49        49        16         3        62
      1594      1594        20       101       137
        22        22         3         2         5
        34        34        16         2       107
       512       512        84        29       136
      1680      1680        45       108        78
      2011      2011        44       140       103
      1588      1588        11       101        20
      1593      1593        20       101        57
       832       832       103        48       146
        51        51        16         3       149
      1576      1576        13       100       125
      1894      1894        67       128        87
       770       770       104        44       140
       613       613        32        35       102
      1633      1633        64       104       123
      1185      1185        39        71        80
      1675      1675        24       108        78
      1845      1845        48       123       104
      2037      2037        54       142        83
       696       696        43        40        55
       858       858         7        50        90
       386       386        11        22       125
      1013      1013        24        60        33
       180       180        22        11       142
       309       309        15        18       133
      1826      1826        24       121        98
      1898      1898        87       128       113
       439       439        28        25        89
      1000      1000        76        59       138
      1745      1745        98       113       128
       404       404        17        23        21
        91        91        28         5       107
      1872      1872        50       126       141
       830       830       103        48       118
      1954      1954        77       134        87
      1397      1397        13        87       134
      1867      1867        91       125       129
       229       229        87        13       134
       230       230       100        13       129
        28        28         5         2        16
       859       859         7        50       119
       154       154        13         9        28
       635       635        65        36       133
      1422      1422        25        89        97
        96        96        10         6        93
      1020      1020        29        60        33
       669       669        39        38        88
       379       379         8        22        91
      2090      2090       115       148       136
      1420      1420        14        89       102
       269       269         3        16        15
      1724      1724        83       112        91
       251       251        16        15        62
        43        43         2         3        16
      1515      1515        39        96        71
       819       819         6        48       103
      1690      1690        46       109        51
      1145      1145        55        68       120
       871       871        38        51        75
       487       487         9        28        82
       563       563        47        32        69
      1252      1252        51        75       149
      1704      1704       103       110       140
       188       188        86        11       101
       209       209        93        12       144
      1545      1545        33        98       113
      1835      1835         4       122       119
       203       203        43        12        93
      1143      1143        55        68        58
      1002      1002        94        59       122
      1323      1323         1        81        19
      1697      1697        52       110       140
      1305      1305        67        79        87
      1358      1358         6        84        29
      1183      1183        39        71        64
       197       197        34        12        43
       905       905        63        53        96
       881       881        44        52        86
      1584      1584        32       100       129
        10        10        35         1       114
      1907      1907       100       129       134
       857       857         4        50       126
      1126      1126        87        67       128
      1895      1895        67       128       113
       912       912        11        54       137
      1205      1205        66        72       135
      1502      1502        21        95       143
      1586      1586        47       100       129
      1658      1658        27       106        92
      1940      1940        18       133        59
       815       815        32        47        82
      1406      1406        79        87       134
        66        66        18         4       122
      1743      1743        67       113       128
        77        77       122         4       130
      1718      1718        22       112        83
      1431      1431         7        90        79
      1157      1157         1        69       114
       144       144        86         8       114
       422       422        31        24       121
      1652      1652        95       105       132
      1130      1130        90        67       128
      1273      1273        68        77        87
      1390      1390        52        86        57
      2062      2062        10       145        99
       278       278        62        16       124
      1324      1324         1        81        42
       677       677        73        38       149
       570       570        82        32       100
      1297      1297       139        78       150
       472       472        60        27       108
      1307      1307        87        79        90
      1392      1392        57        86       110
      1945      1945        36       133       116
      1198      1198        64        72        66
       233       233        25        14        26
        94        94        10         6        48
       151       151         7         9        28
      1090      1090        23        65        34
      1231      1231        45        74        63
       134       134        11         8       114
       370       370        23        21       143
      1918      1918        18       130       127
       510       510        84        29        99
       138       138        22         8       114
      1109      1109        93        66       146
      1815      1815        55       120       112
      2043      2043        21       143       137
      1258      1258        37        76        59
       947       947        45        56       152
      1761      1761         6       115       136
       474       474        92        27       106
      1037      1037         3        62        16
       671       671        51        38        73
      1050      1050        61        62       143
      1791      1791       103       117       114
       518       518         8        30        69
      1700      1700        86       110       117
      2105      2105        45       150        97
      1113      1113       123        66       147
      1664      1664         2       107        25
       945       945        45        56        74
      1570      1570        58        99        84
       869       869        38        51        39
       809       809        13        47        32
      1124      1124        87        67       113
       385       385        11        22       112
       430       430        60        24       152
      1864      1864        30       125       100
      1087      1087        17        65        34
       215       215         9        13       100
      1683      1683        39       109        44
      1497      1497        59        94        76
        79        79         2         5         7
       803       803        51        46        57
       866       866        20        51        46
      1629      1629        48       104       103
      2056      2056        17       144       132
        82        82         2         5       107
      1174      1174        36        70        76
       893       893       110        52       140
      1731      1731        91       112       142
       286       286        21        17       105
       565       565        47        32       100
       854       854         4        50         7
      1920      1920        68       131        91
      1628      1628        48       104        64
       395       395       112        22       125
         1         1        19         1        35
       583       583        60        33        99
       793       793        20        46        44
       569       569        69        32       102
      1133      1133       113        67       128
       494       494        82        28       107
      1178      1178        37        70       135
      2087      2087        81       148       118
       636       636        70        36        76
      1041      1041        15        62        16
      1036      1036         3        62        15
      2060      2060        10       145        40
       774       774        24        45        78
       190       190       101        11       142
      1861      1861        22       125       100
      1641      1641        17       105        95
      1494      1494        37        94        76
      1561      1561        29        99        84
      1725      1725        83       112       120
       157       157        28         9        79
      1348      1348        85        83        95
       928       928        40        55       132
      1352      1352        95        83       105
      1410      1410        38        88        73
       219       219        47        13        87
       341       341        46        20        51
       706       706        58        40        99
       250       250        16        15        23
       365       365        17        21       105
      1996      1996        41       138       122
      1536      1536        49        97       150
        58        58         7         4        18
       628       628        23        36       133
      1033      1033        62        61       137
      1310      1310        37        80        72
      1881      1881         4       127       124
      1915      1915        15       130       127
      2059      2059        65       144       132
      1264      1264        59        76       133
       643       643        53        37        94
       425       425        45        24       108
      1091      1091        23        65        36
      1979      1979       115       136       148
        26        26         3         2       124
        24        24         3         2        26
       244       244        49        14        97
       292       292        23        17       144
       205       205        43        12       147
      1265      1265        70        76        94
      2094      2094         2       149        38
      2028      2028        98       141       126
       346       346        51        20        57
       701       701        55        40        58
       682       682        38        39        71
      1475      1475         6        93        66
      1790      1790       103       117       110
       685       685        38        39       109
       161       161         6        10        43
      1662      1662        92       106       136
       817       817        82        47       100
      1503      1503        54        95        83
      1261      1261        37        76       133
      1377      1377       105        85       112
      2061      2061        10       145        84
       519       519         8        30       100
       493       493        47        28       107
      1589      1589        11       101        54
       992       992        31        59       116
      1609      1609        42       103       104
      1162      1162        30        69        32
      1428      1428         7        90         9
       374       374        95        21       105
      1620      1620       110       103       117
      1655      1655        19       106        92
      2045      2045        61       143        95
       662       662        26        38        73
      2103      2103        45       150        74
      1088      1088        17        65        36
       202       202        43        12        65
      1240      1240        56        74        63
      1290      1290        92        78       139
      1548      1548        41        98        60
      1595      1595        54       101        57
       991       991        31        59        94
       264       264         2        16        15
      2089      2089       115       148       118
      1626      1626        44       104       123
       559       559        35        32        69
      1097      1097        64        66        93
      1556      1556       113        98       141
      1644      1644        21       105        85
      1463      1463        27        92        78
      1429      1429         7        90        50
       645       645        56        37        70
      1687      1687        44       109        46
       958       958        11        57       101
       104       104        48         6       146
      1146      1146        55        68       131
        68        68        18         4       130
       120       120         5         7         9
       582       582        60        33        98
       715       715        31        41       141
      1383      1383         8        86        11
       906       906        74        53        80
       997       997        76        59       116
      1769      1769        84       115       148
       700       700        43        40       145
       597       597        65        34        70
      1702      1702       103       110       114
       549       549       121        31       138
      1165      1165        32        69        35
      1883      1883         7       127        16
        63        63         7         4       130
       478       478       106        27       136
       959       959        20        57        46
       661       661        26        38        51
      1255      1255        36        76        70
       996       996        76        59        94
      1219      1219        26        73        49
       121       121         5         7        50
       152       152         7         9        79
       954       954        11        57        20
       937       937        85        55       132
       779       779        56        45        78
       654       654        76        37        80
      2086      2086        81       148       115
       852       852        74        49       150
      1921      1921        68       131       120
       103       103        48         6       118
       622       622        18        36        76
      1937      1937        85       132       144
      2052      2052        12       144        65
      1848      1848        64       123       104
      1953      1953        13       134       131
        59        59         7         4        50
      1354      1354        95        83       142
       718       718        98        41       138
       455       455        38        26       149
      1045      1045        16        62        21
      1973      1973        27       136       148
      1709      1709        19       111        89
      1276      1276        68        77       134
      1866      1866        91       125       100
       320       320         1        19        35
      1364      1364        29        84       145
       739       739        81        42       118
      1105      1105        72        66       146
      1956      1956        77       134       129
      1760      1760         6       115       118
       179       179        22        11       101
       514       514        99        29       136
      1053      1053        49        63        74
      1419      1419        14        89        97
      1070      1070        44        64       123
      2057      2057        43       144        65
      2022      2022        41       141       113
      1735      1735        33       113        98
      1034      1034        62        61       143
        80        80         2         5         9
      1460      1460        19        92       106
       421       421        31        24       108
       270       270         3        16        62
       296       296       105        17       132
       960       960        20        57        52
       515       515       115        29       136
       695       695        96        39       109
      2005      2005        78       139        97
      1843      1843        48       123        64
       411       411        21        23        65
      1287      1287        45        78       150
      1465      1465        27        92       108
      1578      1578        30       100        32
       413       413        27        24        31
       938       938       120        55       132
      1095      1095        36        65       144
       465       465        29        27        60
      1855      1855         2       124       127
       326       326        35        19        81
      1168      1168        34        70        36
      1403      1403        77        87       128
       212       212         9        13        47
      1065      1065        88        63        96
       397       397       125        22       142
      1161      1161         8        69       114
        38        38        26         2       124
      1685      1685        39       109        51
       303       303         4        18       130
       723       723       121        41       138
       409       409        18        23        65
       359       359        15        21        95
      1962      1962        91       134       131
      1040      1040         3        62       143
        13        13        42         1        81
       768       768        64        44       140
       307       307        15        18       116
      1395      1395        13        87        79
      1340      1340        32        82        47
      1192      1192        72        71        80
      1003      1003        94        59       133
        40        40       107         2       124
      1896      1896        77       128        87
      1016      1016        27        60        29
        32        32         5         2       149
       794       794        20        46        51
       988       988        99        58       128
       310       310        23        18        36
      1759      1759         6       115        84
       393       393        91        22       125
       585       585        98        33        99
      1271      1271        58        77       131
      1477      1477         6        93       147
       698       698        43        40        68
        45        45         2         3        62
      1094      1094        34        65       144
      1101      1101        64        66       147
      2044      2044        61       143        62
      1994      1994        41       138        59
      1564      1564        33        99        58
       765       765        52        44       140
      1767      1767        84       115       118
      1156      1156         1        69        35
      1607      1607        89       102       111
       147       147         5         9        28
      1283      1283        45        78        92
       388       388        30        22        91
      1135      1135       126        67       128
       759       759        46        44       104
       484       484         5        28       107
       222       222        47        13       134
       102       102        48         6       115
      2099      2099        26       149        38
       281       281       124        16       127
       822       822         6        48       123
       534       534        24        31       121
       785       785        74        45       150
       963       963        46        57        52
       737       737        81        42       103
       294       294        65        17       132
       363       363        17        21        62
       970       970        33        58        68
      1044      1044        15        62       143
      1711      1711        19       111       139
       754       754        40        43        55
      1251      1251        38        75       149
       337       337        92        19       139
        25        25         3         2       107
      2049      2049        95       143       137
       401       401        15        23        36
       736       736        48        42       148
      1214      1214        14        73        38
      1069      1069        44        64       104
       987       987        99        58       113
      1312      1312        37        80       151
       773       773        24        45        74
      1311      1311        37        80        96
      1869      1869        50       126        67
      1884      1884         7       127       124
      1632      1632        64       104       103
       556       556        30        32       100
      1114      1114       135        66       146
       464       464        24        27       136
      1430      1430         7        90        67
      1737      1737        33       113       141
      1267      1267        94        76       133
      1897      1897        77       128       113
       760       760        46        44       109
      1989      1989       101       137       143
      2012      2012        44       140       104
       150       150         7         9        13
       842       842        14        49        97
       552       552        30        32        35
      1499      1499        21        95        83
       285       285        21        17        65
      1722      1722        22       112       142
      1386      1386         8        86       110
       968       968        86        57       101
       944       944        45        56        53
      1729      1729        85       112       142
       221       221        47        13       129
       730       730         1        42       118
       831       831       103        48       123
       650       650        70        37        76
       756       756        55        43       144
      1235      1235        49        74        63
      1916      1916        16       130        18
       371       371        62        21        95
      1458      1458        19        92        27
      1923      1923        77       131        91
      1027      1027         3        61        62
       466       466        29        27        92
      1004      1004        94        59       138
       185       185        57        11        86
      1129      1129        90        67       126
      1370      1370        55        85       112
       481       481         5        28        25
      1030      1030        20        61        62
      1067      1067        44        64        71
      1756      1756        69       114       117
      1968      1968        66       135        72
       423       423        31        24       152
       280       280        62        16       130
       304       304         4        18       133
      1210      1210        80        72       135
      1346      1346        54        83       112
      1504      1504        54        95       105
      2016      2016        52       140       110
      1341      1341        32        82       102
      1008      1008       122        59       133
      1568      1568        40        99        84
      1055      1055        49        63        96
       531       531        24        31        41
      1993      1993        31       138       122
       745       745       117        42       148
      1816      1816        55       120       131
      1630      1630        48       104       123
       501       501        33        29        60
       816       816        32        47       100
      1171      1171        34        70       135
      1901      1901        13       129       125
        87        87         7         5       124
       615       615        69        35       102
      1387      1387        11        86        52
      1359      1359         6        84        99
      1640      1640        17       105        85
      1712      1712        35       111        89
       358       358        15        21        62
      1169      1169        34        70        37
       943       943        37        56       152
      1571      1571        58        99       145
      1766      1766        29       115       148
       502       502        33        29        84
       820       820         6        48       104
       656       656        76        37       151
       272       272         3        16       127
      1903      1903        91       129       100
       882       882        44        52       110
      1188      1188        64        71        72
       837       837       118        48       146
       888       888        57        52        86
       429       429        60        24       121
        88        88         9         5        28
       509       509        60        29       136
       891       891        86        52       110
      1972      1972        27       136       115
      1288      1288        92        78        97
      1479      1479        10        93        66
      2079      2079        34       147        66
      1208      1208        71        72       135
       373       373        62        21       143
      1928      1928       120       131       134
       778       778        56        45        74
      1942      1942        18       133       116
       362       362        17        21        23
      1802      1802       115       118       148
        14        14        42         1       114
       452       452        14        26       149
       757       757        46        44        52
       735       735        48        42       118
      1233      1233        49        74        53
      1852      1852       104       123       146
      1010      1010       133        59       138
      1771      1771       118       115       148
       148       148         5         9        79
      1703      1703       103       110       117
       630       630        34        36        70
      1418      1418        14        89        25
      2040      2040        21       143        61
       850       850        73        49       150
       841       841        14        49        74
      1330      1330        42        81       106
      1562      1562        29        99       145
       479       479       108        27       136
      2007      2007        92       139        97
      1086      1086        17        65        23
      1679      1679        27       108        92
       291       291        23        17       132
      2107      2107        49       150        78
       480       480         5        28         9
      1147      1147        58        68        77
      2077      2077        12       147        66
      1696      1696        52       110       117
      2080      2080        34       147        93
      1794      1794         6       118        48
       691       691        71        39        96
       243       243        49        14        89
       728       728         1        42       103
      1496      1496        56        94        76
       105       105        84         6        93
      1075      1075        71        64        72
       343       343        46        20        61
      2117      2117        72       151        80
      1483      1483        12        93       146
       305       305        15        18        23
      1472      1472       108        92       139
        37        37        26         2       107
       646       646        56        37        76
      1824      1824        24       121        41
      1521      1521        53        96        88
      1882      1882         4       127       130
      1819      1819        68       120       131
      1853      1853         2       124         5
       640       640        53        37        70
       377       377         8        22        11
       798       798        44        46        51
      1356      1356       105        83       142
       909       909        11        54        83
      1308      1308        37        80        53
      1337      1337        28        82        32
      1107      1107        93        66       123
      1555      1555       113        98       121
      2073      2073        66       146        93
       573       573        29        33        58
      1009      1009       122        59       138
      2021      2021        41       141        98
      1924      1924        77       131       120
       456       456        73        26       107
       523       523        22        30       100
      1926      1926        91       131       120
       119       119         4         7       127
      1604      1604        35       102       111
       609       609        19        35        69
       672       672        51        38        75
       713       713        31        41       121
       743       743       103        42       148
       904       904        63        53        80
       548       548        94        31       152
       814       814        28        47       100
       118       118         4         7        90
      1714      1714        35       111       139
      1526      1526        71        96        88
      2065      2065        84       145        99
      1747      1747       128       113       141
      1060      1060        73        63        74
      1779      1779        18       116       133
      2047      2047        62       143        95
       437       437        14        25       107
       344       344        46        20        75
      1212      1212       135        72       151
       299       299         4        18        15
      1295      1295       108        78       139
       171       171         8        11        54
       847       847        63        49       150
      1857      1857         5       124       127
       553       553        30        32        47
      1134      1134       113        67       141
      1797      1797        42       118        48
      1011      1011        24        60        27
      1841      1841       116       122       138
       298       298       132        17       144
       347       347        51        20        61
       648       648        56        37        94
      1051      1051        49        63        53
      1567      1567        40        99        58
       357       357        15        21        23
      2119      2119        24       152        45
      1160      1160         8        69        35
       867       867        20        51        75
      1520      1520        53        96        80
      1959      1959        87       134       129
       492       492        47        28        82
       128       128        50         7       127
      1597      1597        57       101       137
       507       507        60        29        99
      2114      2114        37       151        80
       838       838       123        48       146
       902       902        56        53        96
      2027      2027        98       141       113
       496       496        27        29        60
       354       354        61        20       101
      1232      1232        45        74       150
      1256      1256        36        76        94
      1674      1674        24       108        45
      1668      1668         5       107        26
       903       903        63        53        74
       127       127        50         7        90
      1137      1137       128        67       141
      1625      1625        44       104       103
      1372      1372        55        85       132
       884       884        46        52        57
       199       199        34        12        93
       708       708        68        40        99
      1552      1552        60        98       113
      1899      1899        13       129        91
      1624      1624        44       104        64
      1892      1892        58       128       113
       637       637        70        36       133
      1622      1622       117       103       140
      1991      1991        31       138        59
      1782      1782       122       116       133
      1026      1026         3        61        20
       722       722       119        41       141
      1314      1314        53        80        72
      1963      1963       129       134       131
      1910      1910         4       130        16
       920       920        95        54       142
      1751      1751         1       114       117
      1649      1649        83       105       132
      1970      1970        27       136        29
      1978      1978       106       136       148
      1550      1550        41        98       121
      1142      1142        40        68       131
      1525      1525        71        96        80
       707       707        58        40       145
      1803      1803        41       119        50
       517       517         8        30        32
      1481      1481        10        93       147
      1123      1123        87        67        90
       348       348        51        20        75
       625       625        23        36        65
       703       703        55        40        99
       914       914        83        54        95
      2013      2013        44       140       110
       772       772        24        45        56
      2115      2115        70       151        72
      2116      2116        70       151        80
       129       129        90         7       127
       663       663        26        38        75
      2108      2108        49       150        97
      1001      1001        94        59       116
        36        36        16         2       149
       449       449        14        26        38
       758       758        46        44        64
      1393      1393        13        87        67
      1294      1294        97        78       150
        12        12        42         1        69
       447       447         2        26       107
      2102      2102        45       150        49
        86        86         7         5       107
      1693      1693        52       110        86
       146       146         5         9        13
      1470      1470       106        92       108
      1373      1373        83        85       105
      1599      1599        32       102        82
       177       177        22        11        57
        52        52        61         3        62
       124       124         9         7        50
       382       382         8        22       142
       204       204        43        12       144
      1317      1317        71        80        72
      1038      1038         3        62        21
      1726      1726        83       112       142
        65        65        18         4       116
       899       899        56        53        63
       231       231       100        13       134
       525       525        32        30        69
       605       605         1        35        69
       747       747        10        43        12
       724       724       121        41       141
        54        54        61         3       149
      1442      1442        79        90       126
      1909      1909         4       130        15
      1427      1427       102        89       111
       220       220        47        13       100
       917       917        83        54       142
       426       426        45        24       121
      1951      1951        13       134        91
      1932      1932        17       132       144
      2104      2104        45       150        78
      1400      1400        67        87       128
       734       734        48        42       117
       327       327        35        19        92
      2088      2088        81       148       136
       369       369        23        21       105
      1432      1432         7        90       126
        16        16        69         1        81
       557       557        30        32       102
      1719      1719        22       112        85
      1557      1557       121        98       141
       961       961        20        57        86
      1975      1975        29       136       115
       896       896        37        53        74
      1190      1190        64        71        96
      1738      1738        58       113        67
       473       473        60        27       136
      1112      1112       123        66       146
      1309      1309        37        80        71
        57        57        75         3       149
      1035      1035       137        61       143
       328       328        35        19       106
       930       930        43        55        85
       599       599        65        34       147
      1573      1573        13       100        30
      1103      1103        72        66       123
      1042      1042        15        62        21
      1417      1417        73        88        96
       600       600        70        34       135
       633       633        65        36        70
       312       312        23        18       130
       506       506        60        29        84
       184       184        54        11       142
       660       660        26        38        39
       536       536        24        31       152
       383       383        11        22        30
       194       194        10        12        93
      1651      1651        85       105       132
      1182      1182       135        70       151
      1062      1062        73        63        96
      1698      1698        86       110       103
      1880      1880         4       127        16
       839       839        14        49        63
       705       705        58        40        68
      1825      1825        24       121        60
      1863      1863        30       125        91
      1220      1220        26        73        63
       201       201        34        12       147
        23        23         3         2        16
       572       572       100        32       102
      1435      1435         9        90        79
      2106      2106        49       150        74
       160       160         6        10        12
      1885      1885         7       127       130
      1488      1488        31        94        37
       483       483         5        28        82
       368       368        23        21        95
       295       295        65        17       144
      1820      1820        85       120       112
      1944      1944        36       133        76
       810       810        13        47        82
       302       302         4        18       116
      1793      1793         6       118        42
      1579      1579        30       100        47
       436       436        14        25        89
        76        76       122         4       127
       964       964        46        57        86
      1155      1155         1        69        32
      1302      1302        13        79        67
      1332      1332       106        81       148
       542       542        59        31        94
      1024      1024        33        60       121
      1860      1860        22       125        91
       508       508        60        29       115
       168       168        43        10       145
       198       198        34        12        65
      1468      1468        78        92       108
      1585      1585        47       100       125
      1987      1987        95       137       101
       170       170         8        11        22
      1057      1057        53        63        74
      1449      1449       112        91       129
       934       934        68        55       120
      1177      1177        37        70        76
      1415      1415        63        88        73
       175       175         8        11       142
       716       716        98        41       119
       591       591        12        34       135
      1634      1634        64       104       140
       940       940        37        56        53
       537       537        41        31        59
       352       352        57        20       101
      1136      1136       126        67       141
      1281      1281       128        77       134
       658       658        80        37       151
      1275      1275        68        77       131
       935       935        68        55       132
      1121      1121        79        67       128
      1569      1569        40        99       145
       601       601        70        34       147
       431       431       108        24       121
       135       135        22         8        30
       804       804        51        46       109
      1531      1531        14        97       139
      1878      1878       119       126       141
      1456      1456       129        91       134
        61        61         7         4       122
       235       235        25        14        73
       443       443        89        25       107
      1486      1486        66        93       147
      1466      1466        27        92       139
       631       631        34        36        76
      1787      1787        42       117       103
       868       868        20        51       109
        84        84         7         5         9
      1149      1149        58        68       131
      1349      1349        85        83       105
      2054      2054        17       144        43
       408       408        18        23        36
      2069      2069         6       146       123
       453       453        38        26        73
      1935      1935        55       132       144
      1018      1018        27        60        98
       577       577        29        33       113
       400       400        15        23        21
      1083      1083        12        65        34
       419       419        31        24        45
       692       692        71        39       109
       459       459        24        27        29
      1672      1672        26       107        28
      1298      1298         9        79        13
      1374      1374        83        85       112
      2092      2092         2       149         3
      1906      1906       100       129       125
       641       641        53        37        76
       749       749        10        43        55
      1543      1543        33        98        41
       980       980        68        58        77
       313       313        23        18       133
       874       874        39        51        75
       910       910        11        54        95
       213       213         9        13        79
      1999      1999       119       138       122
       342       342        46        20        57
      1230      1230        45        74        56
      1080      1080       104        64       123
      1316      1316        53        80       151
       924       924        40        55        43
      1315      1315        53        80        96
       949       949        53        56        94
       335       335        92        19       106
      1445      1445        22        91       129
      2001      2001        19       139        92
      1128      1128        90        67       113
      2032      2032        11       142        83
      2035      2035        22       142        83
         6         6        19         1       117
       196       196        10        12       147
       603       603         1        35        19
       898       898        37        53        96
        17        17        69         1       114
       939       939        37        56        45
       626       626        23        36        70
      1322      1322        96        80       151
       923       923       137        54       142
       444       444         2        26        14
      1285      1285        45        78       108
      1401      1401        67        87       134
       927       927        40        55       120
      1194      1194        72        71       109
      1262      1262        59        76        70
       619       619        18        36        34
        97        97        10         6       115
       990       990        31        59        76
      1914      1914        15       130        18
      1563      1563        33        99        40
      1905      1905        91       129       134
       788       788        78        45       150
      1054      1054        49        63        88
      1085      1085        12        65       144
       913       913        11        54       142
      2042      2042        21       143        95
       288       288        21        17       144
       851       851        74        49        97
       877       877        46        51       109
       193       193        10        12        65
      1518      1518        53        96        63
      1982      1982        54       137       101
       670       670        39        38       149
       586       586        98        33       113
      1842      1842       119       122       138
      1319      1319        71        80       151
       673       673        51        38        88
       384       384        11        22        91
      1200      1200        64        72        80
       339       339       106        19       139
      1318      1318        71        80        96
      1768      1768        84       115       136
       587       587        99        33       113
      1259      1259        37        76        70
      1773      1773         4       116        18
       367       367        23        21        62
       802       802        51        46        52
      1433      1433         9        90        50
      1667      1667         5       107        25
       889       889        57        52       110
      1831      1831        41       121        98
      1077      1077        71        64       123
      1108      1108        93        66       135
      1689      1689        44       109        71
      1661      1661        81       106       136
       155       155        13         9        79
       356       356        15        21        17
        19        19        81         1       114
       918       918        95        54       101
      1084      1084        12        65        36
      1528      1528        14        97        49
      1830      1830        41       121        60
       836       836       118        48       123
      1351      1351        85        83       142
      1438      1438        50        90        79
       693       693        88        39        96
      1646      1646        21       105       132
      1238      1238        53        74        63
      1605      1605        82       102        89
       976       976        40        58        77
      1565      1565        33        99        84
        67        67        18         4       127
       883       883        44        52       140
      1453      1453       125        91       131
      1407      1407       128        87       134
       248       248        16        15        18
      1904      1904        91       129       125
       546       546        94        31       121
      1596      1596        54       101       137
       895       895        37        53        63
      1476      1476         6        93       146
      2071      2071        48       146        93
      1100      1100        64        66       146
      1284      1284        45        78        97
       727       727         1        42        81
       784       784        74        45       108
       567       567        69        32        82
       595       595        36        34       135
       926       926        40        55        85
      1361      1361         6        84       145
       892       892        86        52       140
      1529      1529        14        97        78
        48        48        16         3        61
       396       396       112        22       142
      1059      1059        53        63        96
       122       122         5         7        90
       717       717        98        41       121
      1613      1613        48       103       104
      1618      1618       104       103       117
       468       468        29        27       108
      1678      1678        27       108        78
      1723      1723        83       112        85
      1328      1328        19        81       106
       690       690        71        39        88
       951       951        74        56        94
       720       720       119        41       121
      1394      1394        13        87        77
       936       936        85        55       120
       300       300         4        18        23
       915       915        83        54       101
       580       580        58        33        99
       908       908        80        53        96
       929       929        43        55        68
       655       655        76        37        94
       435       435        14        25        82
      1250      1250        38        75        51
      1886      1886        16       127       124
      1223      1223        38        73        63
       360       360        15        21       105
      1682      1682        78       108        92
       872       872        38        51       109
       521       521        22        30        32
       391       391        30        22       142
       540       540        41        31       138
      1096      1096        64        66        72
       664       664        26        38        88
      1684      1684        39       109        46
       262       262        62        15       130
        50        50        16         3        75
      1808      1808        50       119       126
      2031      2031        11       142        54
      1180      1180        76        70       135
      1365      1365        99        84       115
      2034      2034        22       142        54
       818       818         6        48        42
       183       183        54        11       101
      1338      1338        28        82        47
       576       576        29        33        99
       252       252        16        15       130
      1299      1299         9        79        67
      1554      1554        60        98       141
      1490      1490        31        94        59
      1014      1014        24        60        98
      1076      1076        71        64       104
      1151      1151        77        68       131
       732       732        48        42        81
       805       805        52        46        57
       812       812        28        47        32
       855       855         4        50        90
       398       398        15        23        17
       239       239        26        14        73
       629       629        34        36        65
      1627      1627        44       104       140
       863       863       119        50       126
      1159      1159         8        69        32
      1191      1191        64        71       109
       796       796        20        46        57
        73        73       116         4       122
       771       771       109        44       140
       596       596        36        34       147
      1778      1778        18       116       122
      1950      1950        13       134        87
      1681      1681        45       108        92
       489       489        25        28        47
       561       561        35        32       100
       611       611        19        35       111
       856       856         4        50       119
      1541      1541        89        97       150
       100       100        48         6        84
      1580      1580        30       100       125
      1676      1676        24       108        92
      1021      1021        29        60        98
      1385      1385         8        86        57
       681       681        38        39        51
      1102      1102        72        66        93
      1986      1986        61       137       143
      1551      1551        41        98       141
      1753      1753         8       114       110
      1489      1489        31        94        56
       366       366        17        21       143
      2121      2121        31       152        45
       427       427        45        24       152
       921       921       101        54       137
       761       761        46        44       140
       593       593        36        34        65
        56        56        62         3       149
       470       470        60        27        92
        11        11        35         1       117
      2053      2053        12       144       132
      1353      1353        95        83       112
      1544      1544        33        98        60
       450       450        14        26        73
      1812      1812       126       119       138
      1140      1140        40        68        77
        27        27         3         2       149
       274       274        15        16        62
      1278      1278        87        77       131
       174       174         8        11       101
      1995      1995        41       138       119
       885       885        46        52        86
      2098      2098         3       149        75
       471       471        60        27       106
      1807      1807        50       119       122
       454       454        38        26       107
      1048      1048        21        62        61
       232       232       129        13       134
      1590      1590        11       101        57
      1707      1707       117       110       140
      1643      1643        21       105        83
        47        47         2         3       149
      1969      1969        70       135        72
      2058      2058        43       144       132
       612       612        32        35        69
       786       786        74        45       152
      1796      1796         6       118       148
      1434      1434         9        90        67
      1104      1104        72        66       135
       375       375        95        21       143
      1327      1327        19        81        42
      1344      1344        54        83        95
      1378      1378       105        85       120
       334       334        81        19       139
       372       372        62        21       105
       675       675        73        38        75
       153       153         7         9        90
      1879      1879         4       127         7
      1512      1512       137        95       143
       825       825        42        48       104
       709       709        68        40       145
      1179      1179        37        70       151
       167       167        43        10        93
      1648      1648        83       105        95
       873       873        39        51        46
      1093      1093        34        65        36
       571       571        82        32       102
      1507      1507        83        95       105
      1840      1840       116       122       119
       241       241        26        14        97
       259       259        21        15       130
      1379      1379       105        85       132
      2076      2076        12       147        34
       901       901        56        53        80
      1221      1221        26        73        88
       178       178        22        11        86
      1202      1202        64        72       151
      1742      1742        67       113        98
       835       835       104        48       146
      1805      1805        41       119       126
      1821      1821        85       120       131
      1339      1339        28        82       102
      1270      1270        58        77       128
      1277      1277        87        77       128
      1912      1912         4       130       127
       844       844        63        49        73
      1326      1326         1        81       148
       329       329        35        19       111
       590       590        12        34        70
       704       704        55        40       145
      1752      1752         8       114        69
      2091      2091       118       148       136
      1893      1893        67       128        77
      1908      1908       125       129       134
      1757      1757       110       114       117
      1701      1701        86       110       140
       442       442        82        25       107
      1519      1519        53        96        71
       111       111        93         6       146
      1635      1635       103       104       123
        90        90         9         5       124
      2038      2038        54       142       112
      1817      1817        68       120        85
       394       394        91        22       142
       416       416        27        24       108
       680       680        88        38       149
       833       833       104        48       118
       776       776        24        45       150
      1694      1694        52       110       103
        70        70        50         4       122
      1799      1799        42       118       148
      2068      2068         6       146        93
       355       355        75        20       101
       644       644        53        37       151
       746       746       118        42       148
       163       163         6        10       145
      1120      1120        79        67       126
       607       607         1        35       111
       566       566        47        32       102
       911       911        11        54       101
      1547      1547        33        98       141
       317       317       116        18       130
      1913      1913        15       130        16
      1770      1770       118       115       136
      1610      1610        42       103       110
      1106      1106        72        66       147
       432       432       108        24       152
      1313      1313        53        80        71
       311       311        23        18       116
       900       900        56        53        74
      1706      1706       114       110       140
       551       551       138        31       152
      1642      1642        17       105       132
       678       678        75        38        88
      1941      1941        18       133        76
      1061      1061        73        63        88
       627       627        23        36        76
      1746      1746        98       113       141
      1847      1847        64       123        66
      1176      1176        36        70       151
         4         4        19         1        81
        75        75       116         4       130
      1471      1471       106        92       139
      1141      1141        40        68       120
      2039      2039        83       142       112
      1234      1234        49        74        56
      1829      1829        31       121        98
      1614      1614        48       103       110
      1606      1606        82       102       111
      2123      2123        45       152        56
      1600      1600        32       102        89
      1804      1804        41       119       122
      1139      1139        40        68        58
       925       925        40        55        68
      2004      2004        78       139        92
       265       265         2        16        62
      1673      1673        24       108        27
      1659      1659        27       106       136
      2120      2120        24       152        56
      2030      2030        11       142        22
      1828      1828        31       121        60
      1777      1777        18       116        59
      2081      2081        66       147        93
      1189      1189        64        71        80
       145       145         5         9         7
      1222      1222        38        73        49
      1608      1608        42       103        48
       941       941        37        56        74
      2100      2100        26       149        75
       543       543        59        31       121
      2066      2066         6       146        48
       140       140        30         8        86
      1404      1404        77        87       134
      1933      1933        55       132        85
       800       800        44        46        57
      1733      1733        33       113        58
       287       287        21        17       132
      2019      2019       104       140       110
       415       415        27        24        60
      1127      1127        87        67       141
      1582      1582        32       100        47
       169       169        93        10       145
      1072      1072        66        64        72
       864       864        20        51        38
       702       702        55        40        68
      1947      1947        59       133       116
       726       726         1        42        48
      1510      1510       105        95       137
      1292      1292        97        78       108
       538       538        41        31        94
      1480      1480        10        93       146
      1744      1744        67       113       141
       108       108        84         6       146
      1263      1263        59        76        94
       133       133        11         8        86
       694       694        88        39       109
       137       137        22         8        86
       200       200        34        12       144
      1131      1131        90        67       141
       325       325         1        19       139
      1780      1780        59       116       122
      1411      1411        38        88        96
       781       781        56        45       150
       276       276        15        16       127
       651       651        70        37        80
      1631      1631        48       104       140
       790       790       108        45       150
      1660      1660        81       106        92
      1437      1437        50        90        67
      1493      1493        37        94        59
      1851      1851        66       123       146
      1542      1542       139        97       150
      1260      1260        37        76        94
       107       107        84         6       118
       336       336        92        19       111
       109       109        93         6       115
       407       407        18        23        21
       594       594        36        34        70
       406       406        17        23        65
      1167      1167        35        69       114
       828       828        42        48       146
      1891      1891        58       128        87
       550       550       121        31       152
       319       319       130        18       133
      1389      1389        11        86       110
      1566      1566        33        99       145
      1537      1537        78        97        89
      1464      1464        27        92       106
      1952      1952        13       134       129
      1304      1304        13        79        90
      1498      1498        21        95        54
      2003      2003        19       139       111
      1469      1469        78        92       139
       979       979        40        58       128
      1115      1115       135        66       147
       744       744       117        42       118
       159       159        79         9        90
       440       440        28        25       107
       725       725       138        41       141
      1492      1492        37        94        56
       263       263         2        16         3
       657       657        80        37        94
      1225      1225        49        73        63
      1971      1971        27       136       106
      1854      1854         2       124        16
       826       826        42        48       118
      2075      2075        93       146       123
      1066      1066        44        64        66
       191       191        10        12        34
       659       659        94        37       151
        72        72        50         4       130
       321       321         1        19        81
      1764      1764        29       115       118
      1409      1409        38        88        63
       753       753        12        43       144
      1280      1280       128        77       131
      1592      1592        20       101        54
       733       733        48        42       103
      1396      1396        13        87       128
      1785      1785         1       117       110
       475       475        92        27       108
      2026      2026        67       141       126
      1558      1558        29        99        33
      1506      1506        54        95       143
       261       261        23        15       130
      1699      1699        86       110       114
       441       441        82        25        89
      1371      1371        55        85       120
      1623      1623        44       104        48
      1553      1553        60        98       121
      2017      2017       103       140       104
      1455      1455       129        91       131
       562       562        35        32       102
       955       955        11        57        46
      1859      1859        22       125        30
      1291      1291        92        78       150
       967       967        52        57       101
      1887      1887        16       127       130
        89        89         9         5       107
      1965      1965        34       135        70
       969       969        33        58        40
       962       962        20        57       101
       486       486         9        28        47
      1224      1224        38        73        88
       206       206        65        12        93
       647       647        56        37        80
       719       719        98        41       141
      1511      1511       105        95       143
      1992      1992        31       138       119
       117       117         4         7        50
      1961      1961        91       134       129
       195       195        10        12       144
      1424      1424        25        89       111
       890       890        57        52       140
       403       403        17        23        18
      1671      1671        25       107        28
       714       714        31        41       138
      1740      1740        58       113       128
      1148      1148        58        68       120
       308       308        15        18       130
       125       125         9         7        90
       897       897        37        53        80
      1440      1440        67        90        79
       106       106        84         6       115
       402       402        15        23        65
         9         9        35         1        81
      1405      1405        79        87       128
       984       984        77        58        99
      1436      1436         9        90       126
      1098      1098        64        66       123
      1058      1058        53        63        88
      1286      1286        45        78       139
      1784      1784         1       117       103
      2096      2096         3       149        26
       520       520         8        30       125
       267       267         2        16       127
      1533      1533        49        97        78
      1801      1801        48       118       148
      1118      1118        79        67        90
      1321      1321        72        80       151
      1666      1666         2       107        28
      1320      1320        72        80        96
      1645      1645        21       105        95
      1538      1538        78        97       139
       181       181        54        11        57
      1500      1500        21        95       105
      1079      1079        72        64       123
       247       247        89        14        97
       824       824        42        48       103
       742       742       103        42       118
      1789      1789        42       117       114
      1922      1922        68       131       134
      1691      1691        46       109        71
      1485      1485        66        93       146
       218       218        47        13        79
       528       528        69        30       100
      1329      1329        19        81       148
      1868      1868       100       125       129
      1047      1047        16        62       143
       971       971        33        58        77
      1218      1218        26        73        38
      1303      1303        13        79        87
      1408      1408        38        88        39
      2085      2085        42       148       136
      1717      1717       102       111       139
      1888      1888       124       127       130
      1647      1647        83       105        85
        60        60         7         4       116
      2118      2118        24       152        31
       965       965        46        57       101
      1381      1381       112        85       132
      1858      1858        16       124       127
      1342      1342        47        82       102
       499       499        27        29       115
       981       981        68        58        99
       676       676        73        38        88
      1530      1530        14        97        89
      1199      1199        64        72        71
      1215      1215        14        73        49
       340       340       111        19       139
      1716      1716        89       111       139
      1451      1451       112        91       134
       751       751        12        43        40
      1736      1736        33       113       128
      1839      1839        59       122       138
      1601      1601        32       102       111
       667       667        39        38        73
       787       787        78        45       108
      1809      1809        50       119       138
      1363      1363        29        84       115
      1015      1015        24        60       121
      1241      1241        56        74       150
       172       172         8        11        57
       234       234        25        14        49
      1810      1810       122       119       126
      1957      1957        77       134       131
       623       623        18        36       133
        42        42       124         2       149
       380       380         8        22       112
      1524      1524        63        96        88
       792       792       150        45       152
        99        99        10         6       146
       653       653        70        37       151
      1184      1184        39        71        72
       208       208        65        12       147
       461       461        24        27        92
      1715      1715        89       111       102
      1958      1958        87       134        91
      1788      1788        42       117       110
      1022      1022        29        60       121
        81        81         2         5        28
      1577      1577        13       100       129
       162       162         6        10        93
      1900      1900        13       129       100
      1546      1546        33        98       121
      1487      1487       146        93       147
       886       886        46        52       110
       666       666        39        38        51
      1246      1246         3        75       149
       555       555        30        32        82
        15        15        42         1       117
       526       526        32        30       100
      1448      1448       112        91       125
      1249      1249        20        75       149
       293       293        65        17       105
        98        98        10         6       118
      1583      1583        32       100       125
       462       462        24        27       106
      1368      1368        55        85        83
      1078      1078        72        64       104
      1876      1876        90       126       119
       115       115         4         7         5
       445       445         2        26        38
       946       946        45        56        94
      1117      1117        79        67        87
      1974      1974        29       136       106
       697       697        43        40        58
      1049      1049        21        62       143
      1111      1111       123        66       135
      1335      1335        25        82        47
         3         3        19         1        69
      1154      1154         1        69        30
      1461      1461        19        92       108
      1734      1734        33       113        67
      1426      1426        97        89       111
       977       977        40        58        99
      1447      1447        22        91       134
      1617      1617       104       103       110
      1967      1967        66       135        70
      1457      1457       131        91       134
       581       581        58        33       113
      1873      1873        67       126        90
      1301      1301         9        79        90
      1781      1781        59       116       133
       410       410        21        23        36
      1204      1204        66        72        80
       187       187        57        11       142
      1402      1402        77        87        79
       387       387        11        22       142
       131       131        11         8        30
       458       458       107        26       149
       688       688        51        39        96
      1775      1775         4       116       122
        21        21       114         1       117
      1523      1523        63        96        80
       491       491        25        28       107
      1833      1833         4       122        59
      1025      1025        98        60       121
      1081      1081        12        65        17
      2055      2055        17       144        65
       256       256        18        15       130
      1874      1874        67       126       119
       246       246        73        14        97
      1439      1439        50        90       126
       331       331        81        19        92
       530       530       100        30       125
      1213      1213        14        73        26
      1732      1732       120       112       142
       141       141        30         8       114
      1150      1150        77        68       120
       113       113       115         6       146
      1748      1748         1       114         8
        95        95        10         6        84
       989       989       113        58       128
       769       769       104        44       109
      2110      2110        74       150        97
      1064      1064        74        63        96
       834       834       104        48       123
       614       614        32        35       111
       242       242        49        14        73
       228       228        87        13       129
       469       469        29        27       136
       755       755        40        43       144
      1934      1934        55       132       105
       332       332        81        19       106
      1806      1806        41       119       138
      1444      1444        22        91       125
      1357      1357       112        83       142
       649       649        56        37       151
      2018      2018       103       140       110
      1677      1677        27       108        45
      1052      1052        49        63        73
      1217      1217        14        73        88
       545       545        59        31       152
      1856      1856         5       124        16
       933       933        68        55        85
       112       112       115         6       118
      1274      1274        68        77       128
       142       142        69         8        86
      1282      1282       131        77       134
      1119      1119        79        67       113
       783       783        74        45        78
      1977      1977       106       136       115
       164       164        12        10        43
       350       350        57        20        61
      1990      1990        31       138        41
      1559      1559        29        99        40
       741       741       103        42       117
      2084      2084        42       148       118
       711       711        31        41        98
       789       789        78        45       152
      1948      1948        76       133       116
       253       253        18        15        21
       592       592        12        34       147
      1800      1800        48       118       115
       130       130        11         8        22
       433       433       121        24       152
      1074      1074        66        64       123
      1421      1421        14        89       111
       752       752        12        43        55
       315       315        36        18       130
      1708      1708        19       111        35
      1783      1783         1       117        42
      1919      1919        68       131        77
      1612      1612        42       103       140
      1092      1092        23        65       144
       211       211       144        12       147
       258       258        21        15        62
      1495      1495        56        94        59
      1336      1336        25        82       102
       271       271         3        16       124
      2006      2006        78       139       111
       589       589        12        34        65
      1705      1705       114       110       117
      2046      2046        61       143       137
       237       237        25        14        97
      2070      2070        48       146        66
       223       223        79        13        87
      1870      1870        50       126        90
      1844      1844        48       123        66
      1616      1616        48       103       140
       290       290        23        17       105
       351       351        57        20        75
      1201      1201        64        72       135
       740       740        81        42       148
      1517      1517        39        96        88
      1762      1762         6       115       148
      1300      1300         9        79        87
      1116      1116       146        66       147
      1244      1244         3        75        38
      1229      1229        45        74        53
       417       417        27        24       121
       192       192        10        12        43
      1527      1527        80        96        88
      2122      2122        31       152        56
      1089      1089        17        65       144
      1846      1846        48       123       146
       123       123         5         7       127
      1247      1247        20        75        38
        31        31         5         2       124
        29        29         5         2        26
      1254      1254        36        76        59
       950       950        53        56       152
      1871      1871        50       126       119
      1818      1818        68       120       112
       642       642        53        37        80
       238       238        26        14        49
       813       813        28        47        82
      1226      1226        49        73        88
       610       610        19        35       102
      1391      1391        52        86       110
      1964      1964        34       135        66
        62        62         7         4       127
       390       390        30        22       125
       275       275        15        16       124
       539       539        41        31       121
       948       948        53        56        74
      1236      1236        49        74       150
      1837      1837        59       122       116
      1686      1686        39       109        71
      1243      1243         3        75        20
      1739      1739        58       113        98
      1980      1980        54       137        61
      1005      1005       116        59       122
      1237      1237        53        74        56
      2112      2112        37       151        70
       414       414        27        24        45
      2015      2015        52       140       104
       806       806        52        46       109
      1443      1443        22        91       112
       894       894        37        53        56
      1413      1413        39        88        73
      1331      1331        42        81       148
        53        53        61         3        75
      1890      1890        58       128        77
      1925      1925        77       131       134
       797       797        20        46       109
      1927      1927        91       131       134
       438       438        28        25        82
      1474      1474         6        93        12
       532       532        24        31        59
      1046      1046        16        62        61
      1186      1186        39        71        96
       322       322         1        19        92
      2083      2083        42       148       115
      2074      2074        66       146       123
      2097      2097         3       149        38
       306       306        15        18        36
      1175      1175        36        70       135
      1984      1984        61       137        95
      1195      1195        80        71        96
         8         8        35         1        69
      1296      1296       108        78       150
      1827      1827        31       121        41
       364       364        17        21        95
       775       775        24        45       108
      1110      1110        93        66       147
      1929      1929        17       132        55
      1516      1516        39        96        80
       710       710        99        40       145
      1164      1164        30        69       114
       139       139        30         8        69
       808       808        13        47        28
      1774      1774         4       116        59
      1173      1173        36        70        37
      1028      1028         3        61       137
      1073      1073        66        64       104
       602       602       135        34       147
       505       505        33        29       136
      1350      1350        85        83       112
      1936      1936        85       132       105
       323       323         1        19       106
       827       827        42        48       123
       101       101        48         6        93
       330       330        35        19       139
      1031      1031        20        61       137
         2         2        19         1        42
      1938      1938       105       132       144
       158       158        28         9        90
      1695      1695        52       110       114
        64        64        18         4        50
       316       316        36        18       133
       524       524        22        30       125
      1375      1375        83        85       120
      1755      1755        69       114       110
      1792      1792       110       117       114
       547       547        94        31       138
       424       424        45        24        60
      1836      1836         4       122       138
       132       132        11         8        69
       136       136        22         8        69
      1099      1099        64        66       135
      1293      1293        97        78       139
      1206      1206        66        72       151
      1966      1966        34       135        72
      2051      2051        12       144        43
      2025      2025        67       141       113
       511       511        84        29       115
      1369      1369        55        85       105
      2041      2041        21       143        62
      1376      1376        83        85       132
       257       257        21        15        23
        69        69        50         4       116
       156       156        13         9        90
       674       674        51        38       149
      1473      1473         6        93        10
       634       634        65        36        76
       862       862        90        50       126
      1345      1345        54        83       105
      1257      1257        36        76       133
      1572      1572        84        99       145
      1688      1688        44       109        51
      1158      1158         8        69        30
       952       952        74        56       152
       721       721       119        41       138
      2095      2095         2       149        75
      1822      1822       112       120       131
      1467      1467        78        92       106
      1071      1071        66        64        71
       210       210        93        12       147
      1334      1334        25        82        32
       974       974        33        58       128
       405       405        17        23        36
      1603      1603        35       102        89
      2020      2020        41       141        67
       338       338       106        19       111
      1560      1560        29        99        58
       579       579        58        33        98
      1960      1960        87       134       131
      1814      1814        55       120        85
       795       795        20        46        52
       957       957        11        57        86
        78        78       127         4       130
       389       389        30        22       112
       870       870        38        51        46
       875       875        39        51       109
       624       624        23        36        34
       249       249        16        15        21
       554       554        30        32        69
      1539      1539        78        97       150
       683       683        38        39        88
       495       495        27        29        33
       606       606         1        35       102
       878       878        75        51       109
      1591      1591        11       101       137
       731       731         1        42       148
       578       578        58        33        60
      1741      1741        58       113       141
      1930      1930        17       132        85
      1228      1228        45        74        49
       840       840        14        49        73
       993       993        31        59       122
       266       266         2        16       124
       807       807        57        46       109
      1598      1598        32       102        35
      1384      1384         8        86        52
      1581      1581        30       100       129
       186       186        57        11       101
       953       953        94        56       152
      1850      1850        66       123       104
      1023      1023        33        60        98
       608       608        19        35        32
      1398      1398        67        87        77
       879       879        44        52        46
       780       780        56        45       108
      1776      1776         4       116       133
       214       214         9        13        87
       880       880        44        52        57
      1170      1170        34        70        76
       166       166        12        10       145
       227       227        87        13       100
       575       575        29        33        98
      1730      1730        91       112       120
       973       973        33        58       113
      2064      2064        40       145        99
      1269      1269        58        77        87
      1911      1911         4       130        18
       226       226        79        13       134
       503       503        33        29        99
      1367      1367       115        84       145
       477       477       106        27       108
      1029      1029         3        61       143
       998       998        76        59       122
       182       182        54        11        86
      2008      2008        92       139       111
       574       574        29        33        60
       260       260        23        15        62
      1032      1032        20        61       143
      1663      1663         2       107         5
       766       766        64        44       104
      1653      1653        19       106        27
      2067      2067         6       146        66
       686       686        51        39        71
       689       689        51        39       109
       488       488         9        28       107
      1347      1347        54        83       142
       665       665        26        38       149
       420       420        31        24        60
       529       529        69        30       125
       777       777        24        45       152
      1765      1765        29       115       136
      1587      1587       125       100       129
        18        18        69         1       117
        30        30         5         2       107
       763       763        52        44       104
       279       279        62        16       127
      1416      1416        63        88        96
       922       922       101        54       142
      1939      1939        18       133        36
      1508      1508        83        95       137
      1534      1534        49        97        89
       361       361        15        21       143
       500       500        27        29       136
       849       849        73        49        97
       282       282       124        16       130
      1943      1943        36       133        59
       986       986        77        58       128
       942       942        37        56        94
        74        74       116         4       127
       811       811        13        47       100
       712       712        31        41       119
      1955      1955        77       134        91
       245       245        73        14        89
      1333      1333        25        82        28
      1138      1138        40        68        55
      1902      1902        13       129       134
      1657      1657        27       106        81
       110       110        93         6       118
      1454      1454       125        91       134
       801       801        44        46       109
      1710      1710        19       111       102
       853       853        97        49       150
       535       535        24        31       138
       767       767        64        44       109
       225       225        79        13       129
      1382      1382       120        85       132
       173       173         8        11        86
      1388      1388        11        86        57
      1125      1125        87        67       126
       446       446         2        26        73
       668       668        39        38        75
      1289      1289        92        78       108
      1946      1946        59       133        76
        20        20        81         1       117
      1399      1399        67        87        79
      1811      1811       122       119       138
       764       764        52        44       109
      1998      1998        59       138       122
