LAMMPS data file.

    108 atoms
    316 bonds
   1565 angles
      0 dihedrals
      0 impropers
      1 atom types
    316 bond types
   1565 angle types
      0 dihedral types
      0 improper types
  -5.693308   5.693308 xlo xhi
  -5.693308   5.693308 ylo yhi
  -0.100000   0.100000 zlo zhi
0.0 0.0 0.0 xy xz yz

Masses # ['atom_id', 'mass']

1 1000000.0

Atoms # ['atomID', 'moleculeID', 'atomType', 'charge', 'x', 'y', 'z']

      1      1      1   0.000000  -5.546690  -4.968670   0.000000
      2      1      1   0.000000  -4.181080  -5.170070   0.000000
      3      1      1   0.000000  -2.645030  -5.218320   0.000000
      4      1      1   0.000000  -1.453900  -5.408980   0.000000
      5      1      1   0.000000  -0.380611  -4.880280   0.000000
      6      1      1   0.000000   0.958333  -4.976890   0.000000
      7      1      1   0.000000   1.907510  -5.494660   0.000000
      8      1      1   0.000000   2.170020  -4.703980   0.000000
      9      1      1   0.000000   3.105160  -5.412060   0.000000
     10      1      1   0.000000   4.434350  -4.644470   0.000000
     11      1      1   0.000000  -4.703770  -4.063580   0.000000
     12      1      1   0.000000  -3.546670  -4.307990   0.000000
     13      1      1   0.000000  -2.633850  -3.876720   0.000000
     14      1      1   0.000000  -1.577140  -4.327590   0.000000
     15      1      1   0.000000  -0.654825  -3.587440   0.000000
     16      1      1   0.000000   0.449418  -3.757650   0.000000
     17      1      1   0.000000   1.817900  -3.764480   0.000000
     18      1      1   0.000000   3.135170  -4.021080   0.000000
     19      1      1   0.000000   5.435270  -3.773560   0.000000
     20      1      1   0.000000  -5.050790  -2.972370   0.000000
     21      1      1   0.000000  -3.788660  -3.085770   0.000000
     22      1      1   0.000000  -2.572250  -2.721010   0.000000
     23      1      1   0.000000  -1.608740  -3.223600   0.000000
     24      1      1   0.000000  -0.776758  -2.705310   0.000000
     25      1      1   0.000000   0.040584  -2.770950   0.000000
     26      1      1   0.000000   1.036460  -2.782680   0.000000
     27      1      1   0.000000   2.087770  -2.642260   0.000000
     28      1      1   0.000000   3.071210  -2.799300   0.000000
     29      1      1   0.000000   4.281280  -3.194670   0.000000
     30      1      1   0.000000   5.271890  -2.705210   0.000000
     31      1      1   0.000000  -5.609540  -2.037560   0.000000
     32      1      1   0.000000  -4.511930  -2.002300   0.000000
     33      1      1   0.000000  -3.561310  -2.017720   0.000000
     34      1      1   0.000000  -2.728890  -1.464500   0.000000
     35      1      1   0.000000  -1.574830  -2.054170   0.000000
     36      1      1   0.000000  -0.391328  -1.950640   0.000000
     37      1      1   0.000000  -0.835812  -1.238010   0.000000
     38      1      1   0.000000   0.631922  -1.949220   0.000000
     39      1      1   0.000000   1.645590  -1.995530   0.000000
     40      1      1   0.000000   2.696590  -1.549370   0.000000
     41      1      1   0.000000   3.778800  -2.152380   0.000000
     42      1      1   0.000000   4.648010  -2.092070   0.000000
     43      1      1   0.000000   5.127870  -1.406940   0.000000
     44      1      1   0.000000  -5.103900  -0.945468   0.000000
     45      1      1   0.000000  -3.900340  -1.078550   0.000000
     46      1      1   0.000000  -2.998670  -0.231736   0.000000
     47      1      1   0.000000  -1.777750  -0.629435   0.000000
     48      1      1   0.000000   0.172019  -1.010510   0.000000
     49      1      1   0.000000   1.427210  -1.126320   0.000000
     50      1      1   0.000000   2.156910  -0.320899   0.000000
     51      1      1   0.000000   3.190260  -0.490010   0.000000
     52      1      1   0.000000   4.068370  -1.081260   0.000000
     53      1      1   0.000000   5.143830  -0.312618   0.000000
     54      1      1   0.000000  -5.289930   0.430490   0.000000
     55      1      1   0.000000  -4.235910   0.041055   0.000000
     56      1      1   0.000000  -3.287540   0.972832   0.000000
     57      1      1   0.000000  -1.966200   0.750932   0.000000
     58      1      1   0.000000  -0.617242  -0.010560   0.000000
     59      1      1   0.000000   0.836864  -0.004779   0.000000
     60      1      1   0.000000   0.089386   0.930775   0.000000
     61      1      1   0.000000   1.832940   0.846821   0.000000
     62      1      1   0.000000   2.906940   0.541497   0.000000
     63      1      1   0.000000   3.964390   0.175086   0.000000
     64      1      1   0.000000   4.966900   0.798257   0.000000
     65      1      1   0.000000  -5.504290   1.403460   0.000000
     66      1      1   0.000000  -4.456800   1.198530   0.000000
     67      1      1   0.000000  -3.595090   2.128470   0.000000
     68      1      1   0.000000  -2.522630   1.991580   0.000000
     69      1      1   0.000000  -1.585400   1.749090   0.000000
     70      1      1   0.000000  -0.831474   1.277350   0.000000
     71      1      1   0.000000  -0.721762   2.227860   0.000000
     72      1      1   0.000000   0.949703   1.126020   0.000000
     73      1      1   0.000000   0.186120   1.894790   0.000000
     74      1      1   0.000000   1.381780   2.085620   0.000000
     75      1      1   0.000000   2.648320   1.638640   0.000000
     76      1      1   0.000000   3.851810   1.340670   0.000000
     77      1      1   0.000000   4.874690   1.681560   0.000000
     78      1      1   0.000000  -4.783830   2.293320   0.000000
     79      1      1   0.000000  -4.025630   3.158510   0.000000
     80      1      1   0.000000  -2.804920   3.349530   0.000000
     81      1      1   0.000000  -1.691460   2.785170   0.000000
     82      1      1   0.000000  -0.702468   3.249320   0.000000
     83      1      1   0.000000   0.227661   2.946050   0.000000
     84      1      1   0.000000   2.469740   2.837110   0.000000
     85      1      1   0.000000   3.387310   2.298680   0.000000
     86      1      1   0.000000   4.339660   2.433600   0.000000
     87      1      1   0.000000   5.511910   2.480420   0.000000
     88      1      1   0.000000  -5.064020   3.583410   0.000000
     89      1      1   0.000000  -3.827640   4.212170   0.000000
     90      1      1   0.000000  -1.466300   4.085680   0.000000
     91      1      1   0.000000   0.001916   4.253650   0.000000
     92      1      1   0.000000   1.257130   3.492290   0.000000
     93      1      1   0.000000   2.437420   4.063330   0.000000
     94      1      1   0.000000   3.641330   3.450240   0.000000
     95      1      1   0.000000   4.476740   4.549690   0.000000
     96      1      1   0.000000   4.961290   3.490060   0.000000
     97      1      1   0.000000   5.572770   4.530820   0.000000
     98      1      1   0.000000  -4.918580   5.167880   0.000000
     99      1      1   0.000000  -3.656500   5.391900   0.000000
    100      1      1   0.000000  -2.633610   4.735010   0.000000
    101      1      1   0.000000  -1.782880   5.250480   0.000000
    102      1      1   0.000000  -0.794249   5.258350   0.000000
    103      1      1   0.000000   0.225425   5.460490   0.000000
    104      1      1   0.000000   1.217120   4.862350   0.000000
    105      1      1   0.000000   2.399850   5.084530   0.000000
    106      1      1   0.000000   3.405110   4.715800   0.000000
    107      1      1   0.000000   4.107640   5.561600   0.000000
    108      1      1   0.000000   5.119230   5.527590   0.000000

Bond Coeffs # ['bondID', 'bondCoeff', 'd']

      1   0.473250   1.380381
      2   0.398374   1.442481
      3   0.217173   1.236811
      4   0.608431   1.261759
      5   0.457059   1.398996
      6   0.258472   1.145487
      7   0.630699   1.223734
      8   0.259502   1.070354
      9   0.456198   1.282033
     10   0.362853   0.977356
     11   0.561161   1.206293
     12   0.080740   1.281271
     13   0.670146   1.341647
     14   0.215570   1.390607
     15   0.087919   1.275094
     16   0.627712   1.433332
     17   0.328935   1.259242
     18   0.345288   1.196442
     19   0.765706   1.088390
     20   0.818357   0.798113
     21   0.427113   0.975968
     22   0.409977   1.342425
     23   0.315836   1.318009
     24   0.624654   1.321601
     25   0.202025   1.396154
     26   0.572645   1.314750
     27   0.457917   1.208749
     28   0.321841   1.081213
     29   0.544949   1.242041
     30   0.463374   1.321189
     31   0.370975   1.486201
     32   0.179002   1.199251
     33   0.540569   1.568867
     34   0.959631   0.833118
     35   0.604839   1.200495
     36   0.342132   1.239649
     37   0.615151   0.945694
     38   0.251291   1.172972
     39   0.675245   1.003319
     40   0.228433   1.182314
     41   0.161767   1.534907
     42   0.628238   1.391303
     43   0.359779   1.135610
     44   0.637963   1.294001
     45   0.311489   1.084204
     46   0.204600   1.441001
     47   0.129636   1.326772
     48   0.596395   1.457858
     49   0.648501   1.224920
     50   0.392990   1.394349
     51   0.595085   1.182631
     52   0.455902   1.280843
     53   0.593068   1.145060
     54   0.202145   1.339231
     55   0.534926   1.009571
     56   0.618749   1.245946
     57   0.268084   1.148878
     58   0.198878   1.399710
     59   0.730766   1.157350
     60   0.219540   1.182576
     61   0.743281   1.104442
     62   0.589274   1.117284
     63   0.544247   1.020947
     64   0.848732   0.890517
     65   0.346097   1.072497
     66   0.518740   1.368499
     67   0.618139   1.068046
     68   0.399638   1.138062
     69   0.381074   1.342030
     70   0.277737   1.254823
     71   0.606277   1.154213
     72   0.668233   1.223453
     73   0.107059   1.412983
     74   0.282881   1.205367
     75   0.239129   1.291049
     76   0.694168   1.080770
     77   0.480023   1.267214
     78   0.613469   1.096967
     79   0.601638   1.089069
     80   0.455268   1.109687
     81   0.358033   1.269923
     82   0.344232   1.302700
     83   0.667872   1.091979
     84   0.351368   1.086714
     85   0.633305   1.266236
     86   0.212799   1.199801
     87   0.561847   0.980213
     88   0.751400   1.169922
     89   0.825643   0.819974
     90   0.328652   1.030001
     91   0.762068   0.847398
     92   0.667183   0.995945
     93   0.641210   0.927069
     94   0.424562   1.012384
     95   0.668919   1.060646
     96   0.646021   0.926448
     97   0.525159   0.995311
     98   0.437132   0.995899
     99   0.594832   0.783443
    100   0.428959   1.251028
    101   0.407132   1.273023
    102   0.607853   1.304862
    103   0.434153   0.958744
    104   0.427343   1.104934
    105   0.539230   1.157089
    106   0.691105   1.161988
    107   0.395778   0.837240
    108   0.272025   0.874738
    109   0.640728   1.098176
    110   0.281237   0.905070
    111   0.636667   1.203469
    112   0.789128   0.950745
    113   0.411617   1.211331
    114   0.406630   1.107861
    115   0.303857   0.999488
    116   0.824654   0.998490
    117   0.207524   1.295980
    118   0.420889   1.233391
    119   0.652772   1.261938
    120   0.167074   1.265702
    121   0.591304   1.188022
    122   0.329405   1.101029
    123   0.600642   1.439113
    124   0.638246   0.839885
    125   0.644483   1.023251
    126   0.498658   1.095995
    127   0.289045   1.121432
    128   0.614272   1.033189
    129   0.596912   1.246758
    130   0.678320   1.014725
    131   0.584666   1.045317
    132   0.313323   1.144398
    133   0.347522   1.141779
    134   0.813663   0.896223
    135   0.232889   1.238870
    136   0.341417   1.338020
    137   0.533793   1.341788
    138   0.526617   1.168740
    139   0.305014   1.449451
    140   0.776522   0.871300
    141   0.690344   1.109571
    142   0.419996   0.836462
    143   0.553171   1.165212
    144   0.419348   1.243635
    145   0.516261   1.108426
    146   0.718643   1.094438
    147   0.453764   1.210895
    148   0.226032   1.302905
    149   0.599266   1.388477
    150   0.159706   1.314015
    151   0.212025   1.236973
    152   0.679906   1.168813
    153   0.354344   1.284060
    154   0.457301   1.266956
    155   0.645039   1.238721
    156   0.130922   1.425353
    157   0.619201   1.393171
    158   0.255758   1.315213
    159   0.561319   1.260522
    160   0.280688   1.273904
    161   0.343294   1.205618
    162   0.212931   1.086814
    163   0.510386   1.267424
    164   0.665690   1.047096
    165   0.412761   1.357370
    166   0.615843   1.211828
    167   0.275875   1.142923
    168   0.204685   1.058609
    169   0.711445   1.069709
    170   0.312827   1.020603
    171   0.202924   1.321902
    172   0.671954   1.260642
    173   0.203130   1.208365
    174   0.378108   1.276297
    175   0.736875   1.124877
    176   0.383461   1.123662
    177   0.440748   1.188138
    178   0.789023   0.996304
    179   0.255345   1.133133
    180   0.218150   1.329516
    181   0.677383   1.178363
    182   0.387460   1.339843
    183   0.465408   1.190844
    184   0.643622   1.195862
    185   0.239698   1.273945
    186   0.084300   1.549051
    187   0.536652   1.359714
    188   0.593353   1.068330
    189   0.296202   1.250887
    190   0.488359   1.454117
    191   0.341937   1.177045
    192   0.289097   1.197491
    193   0.214049   1.310492
    194   0.705734   1.136414
    195   0.323377   0.983919
    196   0.676418   0.882194
    197   0.746618   0.968856
    198   0.478107   1.116557
    199   0.565935   0.926315
    200   0.616966   1.318396
    201   0.209624   1.136583
    202   0.436947   1.119133
    203   0.731457   1.127212
    204   0.178580   1.237520
    205   0.216807   1.180410
    206   0.717741   1.171008
    207   0.326837   1.097395
    208   0.294800   1.240015
    209   0.902395   0.888103
    210   0.591502   1.067348
    211   0.590459   1.045309
    212   0.253435   1.144951
    213   0.652998   1.138882
    214   0.224723   1.267806
    215   0.693202   1.142591
    216   0.525984   1.081161
    217   0.544562   1.200116
    218   0.597808   1.116399
    219   0.288857   1.454426
    220   0.705879   0.968092
    221   0.575082   1.386981
    222   0.214257   1.149186
    223   0.622808   0.889350
    224   0.394910   0.987467
    225   0.773794   1.041494
    226   0.613902   0.956821
    227   0.314815   0.967050
    228   0.442165   1.118440
    229   0.749042   1.021642
    230   0.369551   1.190462
    231   0.402811   1.083543
    232   0.566498   1.052389
    233   0.502363   1.210793
    234   0.795226   1.052080
    235   0.427153   1.343099
    236   0.187501   1.322269
    237   0.600775   1.412182
    238   0.468417   1.239828
    239   0.699883   1.211702
    240   0.321183   0.990838
    241   0.492997   1.078188
    242   0.586159   1.064680
    243   0.563404   1.196868
    244   0.493778   0.922942
    245   0.442659   1.021874
    246   0.275769   1.150401
    247   0.528550   1.106805
    248   0.632513   1.320166
    249   0.516440   1.235565
    250   0.331908   1.121960
    251   0.756920   1.072101
    252   0.225981   1.248317
    253   0.193813   1.337948
    254   0.156970   1.527685
    255   0.612890   1.396031
    256   0.516446   1.092493
    257   0.653953   1.319857
    258   0.696221   0.978321
    259   0.264260   1.132668
    260   0.343726   1.226717
    261   0.674067   1.326944
    262   0.166596   1.165412
    263   0.362707   1.063881
    264   0.195623   1.378290
    265   0.705967   1.226646
    266   0.261095   1.322328
    267   0.711287   0.961860
    268   0.670355   1.179244
    269   0.596310   1.173184
    270   0.298818   1.233378
    271   0.410852   1.225778
    272   0.211112   1.368868
    273   0.477427   1.150024
    274   0.237461   1.387074
    275   0.486051   1.364504
    276   0.204836   1.208232
    277   0.528701   1.591131
    278   0.128627   1.450356
    279   0.659209   1.192079
    280   0.292276   1.303484
    281   0.394455   1.477793
    282   0.207758   1.335755
    283   0.661594   1.207055
    284   0.392778   1.351594
    285   0.169579   1.468071
    286   0.215030   1.281912
    287   0.686503   1.227363
    288   0.150183   1.359131
    289   0.267014   1.311172
    290   0.634183   1.370644
    291   0.249964   1.351029
    292   0.171896   1.458617
    293   0.800762   1.021891
    294   0.241514   1.167108
    295   0.256692   1.380833
    296   0.480189   1.320560
    297   0.642079   1.287417
    298   0.511023   1.165163
    299   0.655932   1.096193
    300   0.573604   1.084428
    301   0.651501   1.077125
    302   0.385197   1.170078
    303   0.463019   1.207099
    304   0.235864   1.098794
    305   0.641436   1.095102
    306   0.495740   1.281808
    307   0.434410   1.395948
    308   0.286253   1.215652
    309   0.296011   0.994712
    310   0.708613   0.988662
    311   0.659481   1.039517
    312   0.246347   1.158115
    313   0.528374   1.203418
    314   0.535484   1.070752
    315   0.320213   1.099512
    316   0.671780   1.012162

Bonds # ['ID', 'type', 'atom1', 'atom2']

         1         1         1         2
         2         2         1        10
         3         3         1        11
         4         4         1        19
         5         5         1        98
         6         6         1       108
         7         7         2        11
         8         8         2        12
         9         9         2        98
        10        10         2        99
        11        11         3         4
        12        12         3        12
        13        13         3        13
        14        14         3        14
        15        15         3        99
        16        16         3       100
        17        17         3       101
        18        18         4         5
        19        19         4        14
        20        20         4       101
        21        21         4       102
        22        22         5         6
        23        23         5        14
        24        24         5        15
        25        25         5        16
        26        26         5       102
        27        27         5       103
        28        28         6         7
        29        29         6         8
        30        30         6        16
        31        31         6        17
        32        32         6       103
        33        33         6       104
        34        34         7         8
        35        35         7         9
        36        36         7       104
        37        37         7       105
        38        38         8         9
        39        39         8        17
        40        40         8        18
        41        41         9        10
        42        42         9        18
        43        43         9       105
        44        44         9       106
        45        45         9       107
        46        46        10        18
        47        47        10        19
        48        48        10        29
        49        49        10       107
        50        50        10       108
        51        51        11        12
        52        52        11        19
        53        53        11        20
        54        54        11        21
        55        55        12        13
        56        56        12        21
        57        57        13        14
        58        58        13        21
        59        59        13        22
        60        60        14        15
        61        61        14        23
        62        62        15        16
        63        63        15        23
        64        64        15        24
        65        65        15        25
        66        66        16        17
        67        67        16        25
        68        68        16        26
        69        69        17        18
        70        70        17        26
        71        71        17        27
        72        72        18        28
        73        73        18        29
        74        74        19        20
        75        75        19        29
        76        76        19        30
        77        77        20        21
        78        78        20        30
        79        79        20        31
        80        80        20        32
        81        81        21        22
        82        82        21        32
        83        83        21        33
        84        84        22        23
        85        85        22        34
        86        86        22        35
        87        87        23        24
        88        88        23        35
        89        89        24        25
        90        90        24        35
        91        91        24        36
        92        92        25        26
        93        93        25        36
        94        94        25        38
        95        95        26        27
        96        96        26        38
        97        97        26        39
        98        98        27        28
        99        99        27        39
       100       100        27        40
       101       101        28        29
       102       102        28        40
       103       103        28        41
       104       104        29        30
       105       105        29        41
       106       106        29        42
       107       107        30        31
       108       108        30        42
       109       109        31        32
       110       110        31        43
       111       111        31        44
       112       112        32        33
       113       113        32        44
       114       114        32        45
       115       115        33        34
       116       116        33        45
       117       117        34        35
       118       118        34        45
       119       119        34        46
       120       120        34        47
       121       121        35        36
       122       122        35        37
       123       123        35        47
       124       124        36        37
       125       125        36        38
       126       126        36        48
       127       127        37        47
       128       128        37        48
       129       129        37        58
       130       130        38        39
       131       131        38        48
       132       132        38        49
       133       133        39        40
       134       134        39        49
       135       135        40        41
       136       136        40        49
       137       137        40        50
       138       138        40        51
       139       139        40        52
       140       140        41        42
       141       141        41        52
       142       142        42        43
       143       143        42        52
       144       144        43        44
       145       145        43        52
       146       146        43        53
       147       147        44        45
       148       148        44        53
       149       149        44        54
       150       150        44        55
       151       151        45        46
       152       152        45        55
       153       153        46        47
       154       154        46        55
       155       155        46        56
       156       156        46        57
       157       157        47        57
       158       158        47        58
       159       159        48        49
       160       160        48        58
       161       161        48        59
       162       162        49        50
       163       163        49        59
       164       164        50        51
       165       165        50        59
       166       166        50        61
       167       167        50        62
       168       168        51        52
       169       169        51        62
       170       170        51        63
       171       171        52        53
       172       172        52        63
       173       173        53        54
       174       174        53        63
       175       175        53        64
       176       176        54        55
       177       177        54        64
       178       178        54        65
       179       179        54        66
       180       180        55        56
       181       181        55        66
       182       182        56        57
       183       183        56        66
       184       184        56        67
       185       185        56        68
       186       186        57        58
       187       187        57        68
       188       188        57        69
       189       189        57        70
       190       190        58        59
       191       191        58        60
       192       192        59        60
       193       193        59        61
       194       194        59        72
       195       195        60        70
       196       196        60        72
       197       197        60        73
       198       198        61        62
       199       199        61        72
       200       200        61        74
       201       201        61        75
       202       202        62        63
       203       203        62        75
       204       204        62        76
       205       205        63        64
       206       206        63        76
       207       207        64        65
       208       208        64        76
       209       209        64        77
       210       210        65        66
       211       211        65        77
       212       212        65        78
       213       213        65        87
       214       214        66        67
       215       215        66        78
       216       216        67        68
       217       217        67        78
       218       218        67        79
       219       219        67        80
       220       220        68        69
       221       221        68        80
       222       222        68        81
       223       223        69        70
       224       224        69        71
       225       225        69        81
       226       226        70        71
       227       227        71        73
       228       228        71        81
       229       229        71        82
       230       230        71        83
       231       231        72        73
       232       232        72        74
       233       233        73        74
       234       234        73        83
       235       235        74        75
       236       236        74        84
       237       237        74        92
       238       238        75        76
       239       239        75        84
       240       240        75        85
       241       241        76        77
       242       242        76        85
       243       243        76        86
       244       244        77        86
       245       245        77        87
       246       246        78        79
       247       247        78        87
       248       248        78        88
       249       249        79        80
       250       250        79        88
       251       251        79        89
       252       252        80        81
       253       253        80        89
       254       254        80        90
       255       255        80       100
       256       256        81        82
       257       257        81        90
       258       258        82        83
       259       259        82        90
       260       260        82        91
       261       261        83        91
       262       262        83        92
       263       263        84        85
       264       264        84        92
       265       265        84        93
       266       266        84        94
       267       267        85        86
       268       268        85        94
       269       269        86        87
       270       270        86        94
       271       271        86        96
       272       272        87        88
       273       273        87        96
       274       274        88        89
       275       275        88        96
       276       276        88        97
       277       277        88        98
       278       278        89        98
       279       279        89        99
       280       280        89       100
       281       281        90        91
       282       282        90       100
       283       283        90       101
       284       284        90       102
       285       285        91        92
       286       286        91       102
       287       287        91       103
       288       288        91       104
       289       289        92        93
       290       290        92       104
       291       291        93        94
       292       292        93       104
       293       293        93       105
       294       294        93       106
       295       295        94        95
       296       296        94        96
       297       297        94       106
       298       298        95        96
       299       299        95        97
       300       300        95       106
       301       301        95       107
       302       302        95       108
       303       303        96        97
       304       304        97        98
       305       305        97       108
       306       306        98        99
       307       307        98       108
       308       308        99       100
       309       309       100       101
       310       310       101       102
       311       311       102       103
       312       312       103       104
       313       313       104       105
       314       314       105       106
       315       315       106       107
       316       316       107       108

Angle Coeffs # ['angleID', 'energy', 'value (deg)']

    972   0.000000 125.545145
    756   0.000000  67.009531
    886   0.000000 178.327550
    915   0.000000 179.214323
    149   0.000000  44.524973
     15   0.000000  65.666102
   1029   0.000000  78.156308
    182   0.000000 146.474055
    812   0.000000 106.970822
   1018   0.000000  76.437884
   1112   0.000000  60.737540
    212   0.000000  69.262217
    347   0.000000  71.131886
    574   0.000000 142.726323
    350   0.000000  67.536913
    613   0.000000 163.501345
    240   0.000000  53.559114
    542   0.000000 150.735922
    295   0.000000 171.038308
    741   0.000000 153.784940
    133   0.000000  52.394329
    941   0.000000 173.444185
     40   0.000000 136.313817
   1407   0.000000 166.106207
   1280   0.000000  58.098275
    510   0.000000 175.080141
    731   0.000000 144.071243
    619   0.000000 151.908781
    582   0.000000 144.865013
   1311   0.000000 159.712538
    912   0.000000  62.803444
    829   0.000000  89.268851
    584   0.000000 139.133746
    462   0.000000  69.221665
   1362   0.000000 104.167494
    325   0.000000 126.816326
    740   0.000000  43.081359
    878   0.000000  58.624210
   1249   0.000000 153.893756
   1193   0.000000 123.124309
   1293   0.000000 161.490395
    822   0.000000  56.310743
   1101   0.000000 150.530139
   1387   0.000000 114.494188
    333   0.000000 119.187183
     48   0.000000  74.404378
   1159   0.000000 143.497383
    371   0.000000 173.318476
    223   0.000000  61.252380
   1385   0.000000  57.681033
    903   0.000000 123.905638
    531   0.000000  61.493595
    927   0.000000 130.103417
   1518   0.000000  69.265871
    504   0.000000 176.123615
    378   0.000000 127.059388
   1268   0.000000 120.577570
    840   0.000000 157.728950
   1230   0.000000  57.558482
    519   0.000000 154.818781
   1483   0.000000  62.818219
    705   0.000000  56.989375
    780   0.000000  58.027463
   1418   0.000000 106.612552
    394   0.000000 166.312548
   1356   0.000000 154.853625
    446   0.000000 121.693688
   1057   0.000000 151.493294
   1265   0.000000  43.604346
    746   0.000000 111.818144
    827   0.000000  54.332256
    233   0.000000 179.850598
   1174   0.000000 136.799931
   1234   0.000000 170.374059
    863   0.000000  95.926317
   1505   0.000000  45.517436
    188   0.000000 123.930493
   1548   0.000000  59.753076
   1297   0.000000  98.678564
    187   0.000000  67.370800
     34   0.000000  82.784334
    528   0.000000 118.158584
    735   0.000000  44.959618
    902   0.000000  60.866538
   1458   0.000000  60.297820
    343   0.000000  77.538602
   1256   0.000000 153.271085
    267   0.000000  61.426987
    861   0.000000  51.604040
    558   0.000000  44.189202
    286   0.000000  65.983136
    753   0.000000 111.629778
   1118   0.000000  56.665845
   1524   0.000000  67.749962
   1022   0.000000 170.259230
    165   0.000000 179.860206
    919   0.000000 129.023047
    111   0.000000  82.147245
   1155   0.000000  52.169803
    365   0.000000  54.935074
    852   0.000000  48.771631
   1067   0.000000 177.609986
    638   0.000000 168.074609
    440   0.000000 133.992073
    685   0.000000 120.431395
    372   0.000000 129.192012
     17   0.000000 117.960065
    779   0.000000  59.752528
   1465   0.000000 145.555241
    711   0.000000 122.317831
    424   0.000000  72.400759
   1558   0.000000 134.350873
   1221   0.000000  56.857704
    987   0.000000 121.430171
   1059   0.000000  94.004093
    450   0.000000 175.529692
   1081   0.000000 158.206810
    475   0.000000  68.346792
    549   0.000000  81.101364
    121   0.000000  95.181304
    561   0.000000 138.329971
    447   0.000000 175.544076
    139   0.000000  54.208443
   1560   0.000000  57.771319
    277   0.000000 179.368614
    264   0.000000 127.029680
    468   0.000000 124.175919
    758   0.000000 128.109335
   1507   0.000000 120.177853
    932   0.000000  57.805203
    775   0.000000 122.702700
    499   0.000000  50.266194
   1262   0.000000  57.799883
    906   0.000000  63.039101
    566   0.000000 137.987589
    410   0.000000 170.500224
   1295   0.000000 107.778330
    556   0.000000 137.962857
    954   0.000000  53.741607
    229   0.000000 121.015799
    418   0.000000  46.167709
    381   0.000000  63.624846
    217   0.000000  59.624486
    851   0.000000 152.231565
    154   0.000000 145.051602
    636   0.000000 113.353998
    176   0.000000  81.074796
    208   0.000000 118.146602
    905   0.000000  59.336031
     84   0.000000  41.305184
     96   0.000000 177.663802
    931   0.000000 178.396208
    957   0.000000  68.270478
   1449   0.000000  59.244210
    936   0.000000  58.100691
   1156   0.000000 106.437909
   1175   0.000000  72.736552
    321   0.000000  45.741963
   1061   0.000000 114.502613
    964   0.000000 121.749623
     54   0.000000 149.155425
    280   0.000000  54.745158
   1325   0.000000 126.303190
   1220   0.000000 117.366039
    459   0.000000 135.624592
   1238   0.000000 112.815577
    727   0.000000  74.620829
    785   0.000000  60.881541
    934   0.000000 120.591005
    825   0.000000 143.601107
    358   0.000000  66.818750
   1371   0.000000  51.042889
     58   0.000000  51.017499
     70   0.000000  96.455255
   1092   0.000000  91.885162
   1134   0.000000  44.651000
   1392   0.000000 124.953315
    914   0.000000 117.134305
    539   0.000000  70.124088
    279   0.000000 122.332136
   1405   0.000000  68.795426
   1494   0.000000 137.690801
   1097   0.000000  47.514070
    765   0.000000  59.749986
   1327   0.000000 176.608784
   1323   0.000000  67.113367
    904   0.000000 122.375132
    150   0.000000  89.412484
   1166   0.000000 110.064708
    428   0.000000  66.982360
     85   0.000000 141.267999
    194   0.000000 110.055629
    806   0.000000  62.632604
   1336   0.000000  57.088026
     51   0.000000  70.276871
   1411   0.000000 155.870793
   1421   0.000000  96.101995
    370   0.000000 123.056678
    719   0.000000  74.308362
   1400   0.000000  55.641532
    659   0.000000  56.824007
    945   0.000000 104.488857
    991   0.000000 172.767894
   1514   0.000000  43.854928
   1525   0.000000 149.217710
    254   0.000000  87.501324
   1058   0.000000 154.433919
   1475   0.000000 168.520687
    377   0.000000  63.434542
    841   0.000000  51.943756
    950   0.000000  55.590431
   1443   0.000000  65.545974
    348   0.000000 148.975775
     30   0.000000  80.449502
    516   0.000000  80.705750
   1546   0.000000 155.755817
    545   0.000000  78.640644
   1521   0.000000 139.034619
   1563   0.000000  50.601462
   1040   0.000000 104.798218
    831   0.000000  51.833188
   1344   0.000000  59.034034
   1453   0.000000 128.260951
     24   0.000000 111.188878
   1089   0.000000 167.966447
    122   0.000000  47.659243
    294   0.000000 160.709777
    478   0.000000  61.062190
   1139   0.000000 154.141020
    826   0.000000  98.562908
    213   0.000000 122.852818
    667   0.000000 109.964158
    907   0.000000  54.063613
    197   0.000000 115.375686
   1472   0.000000 175.871080
    663   0.000000 166.788165
   1313   0.000000 142.234256
    146   0.000000  55.639118
   1335   0.000000 122.942441
   1246   0.000000  48.569071
   1060   0.000000  54.072788
     88   0.000000  51.893405
    430   0.000000 153.407419
   1177   0.000000 150.463516
   1338   0.000000  65.691497
   1273   0.000000 121.892687
   1197   0.000000 173.034723
    505   0.000000 112.768458
    488   0.000000 139.500663
   1533   0.000000  54.133081
    797   0.000000 114.410774
    130   0.000000  58.758189
    848   0.000000  56.305248
    948   0.000000 120.049950
   1557   0.000000 175.047665
   1160   0.000000  54.268106
    801   0.000000  55.419578
    209   0.000000  65.253795
    606   0.000000  67.383001
    373   0.000000  59.090595
    845   0.000000  52.877899
   1367   0.000000 156.087568
    738   0.000000 140.681665
    754   0.000000 170.114915
    500   0.000000  54.822433
    219   0.000000 169.167967
     76   0.000000 113.431232
   1404   0.000000 129.346144
    774   0.000000 177.753002
   1127   0.000000 146.673689
    453   0.000000  62.585184
    492   0.000000  87.050439
   1425   0.000000  54.024799
    610   0.000000 108.534429
    716   0.000000  61.026573
   1398   0.000000 177.805112
    645   0.000000  59.613546
   1102   0.000000 135.462347
    970   0.000000 172.218568
    998   0.000000  78.847310
   1497   0.000000 172.178319
   1467   0.000000  73.992775
   1431   0.000000 153.712785
   1473   0.000000  47.932430
    743   0.000000 154.899503
    179   0.000000 132.451149
   1529   0.000000  56.453837
    168   0.000000 172.355984
    470   0.000000  51.842869
    276   0.000000 125.886227
    116   0.000000 147.678453
    310   0.000000 157.474199
   1540   0.000000 109.570274
    697   0.000000 166.342089
    821   0.000000 160.088150
    654   0.000000 121.527900
   1113   0.000000 128.751666
    136   0.000000 111.152518
    733   0.000000 163.288069
    602   0.000000 146.788577
    548   0.000000  73.281155
    445   0.000000 118.122230
    649   0.000000 118.754625
    353   0.000000  54.170297
    704   0.000000  65.892510
     46   0.000000  42.752226
     75   0.000000 161.859705
    104   0.000000 164.523103
    151   0.000000 113.339894
    260   0.000000 179.487907
   1200   0.000000 121.914223
      4   0.000000  54.932734
    579   0.000000  71.562020
   1258   0.000000 105.324685
    678   0.000000 177.464044
    304   0.000000 149.795055
    454   0.000000 125.347419
   1455   0.000000  56.355751
    871   0.000000 149.248106
    465   0.000000  55.829127
    555   0.000000 175.864867
     79   0.000000 163.180028
    672   0.000000 133.887571
    437   0.000000 128.953418
     63   0.000000 159.334224
   1270   0.000000 124.289747
   1532   0.000000 137.198873
    933   0.000000 115.905895
    843   0.000000 150.327295
    723   0.000000 155.341030
   1239   0.000000 167.980485
    327   0.000000  99.586202
    778   0.000000 119.296826
    382   0.000000  68.870556
   1049   0.000000 100.943143
   1547   0.000000  76.456437
    814   0.000000 154.466270
    113   0.000000  71.233759
   1108   0.000000  74.007514
   1441   0.000000  70.217732
   1088   0.000000 150.428586
    409   0.000000  53.887662
   1462   0.000000  78.003565
    215   0.000000 127.603701
   1240   0.000000  63.416804
   1167   0.000000 127.980293
   1315   0.000000 107.018924
    131   0.000000 158.401264
     25   0.000000  67.579294
   1124   0.000000  63.913502
   1215   0.000000  59.484008
    781   0.000000 118.909004
    959   0.000000 126.376598
   1043   0.000000 150.785644
   1065   0.000000 121.933756
    489   0.000000 170.233143
    137   0.000000  51.798491
   1140   0.000000  92.849692
   1430   0.000000  51.284947
   1243   0.000000  63.680795
    977   0.000000 119.958101
    935   0.000000  62.490314
     80   0.000000  63.217213
   1149   0.000000 166.731446
   1021   0.000000 133.689834
   1068   0.000000 122.702370
     37   0.000000  49.690975
   1129   0.000000  71.024580
   1352   0.000000  58.116957
   1332   0.000000 177.143368
    569   0.000000 142.843032
    296   0.000000 126.001537
    596   0.000000  64.137367
   1528   0.000000 112.214209
   1219   0.000000 173.581609
    285   0.000000  54.665007
    997   0.000000  83.624078
   1535   0.000000  70.616133
    675   0.000000  57.032649
   1003   0.000000  69.649116
    682   0.000000 136.187262
    564   0.000000  41.433542
   1468   0.000000  75.251005
    664   0.000000  49.028056
    414   0.000000  52.934234
   1011   0.000000 104.040148
   1276   0.000000 125.209726
   1277   0.000000 176.691999
   1446   0.000000 113.191068
    385   0.000000 164.400649
    493   0.000000 137.316633
     50   0.000000 141.617638
   1349   0.000000  60.977442
   1169   0.000000  55.036206
    477   0.000000 120.482928
   1146   0.000000  49.040511
    641   0.000000 130.487208
   1106   0.000000  73.001923
    486   0.000000 115.403942
   1393   0.000000 179.962721
   1341   0.000000 179.402855
   1314   0.000000  58.131781
   1141   0.000000  51.378351
   1202   0.000000  60.107576
   1128   0.000000 140.123037
   1098   0.000000  49.921361
      9   0.000000  63.999919
    206   0.000000  63.539488
    986   0.000000 170.575458
   1499   0.000000  49.409328
   1318   0.000000 110.746820
    696   0.000000 123.720800
   1360   0.000000 104.547899
    389   0.000000 133.433699
    334   0.000000 120.281617
   1516   0.000000  69.768748
    890   0.000000 118.297674
    870   0.000000 148.835877
   1004   0.000000  61.037100
     69   0.000000 101.685039
    540   0.000000  72.095278
    670   0.000000  60.936101
   1309   0.000000  48.965718
    952   0.000000  58.132171
    490   0.000000 167.854167
     81   0.000000 121.208679
   1422   0.000000 160.552918
    239   0.000000  59.233273
   1213   0.000000  72.035132
    523   0.000000  67.230711
   1188   0.000000 133.990768
    433   0.000000  67.980868
    323   0.000000  65.503393
    436   0.000000 124.288396
    495   0.000000 105.095394
    881   0.000000 118.654087
    980   0.000000 115.012426
    252   0.000000 103.235699
   1228   0.000000  57.239897
    270   0.000000  57.202961
    316   0.000000 158.173673
    100   0.000000 147.442468
    562   0.000000  92.157695
     12   0.000000 176.025279
   1495   0.000000  43.337765
    220   0.000000 167.884965
     21   0.000000 119.596866
   1500   0.000000  88.855201
   1320   0.000000  48.887144
    816   0.000000 107.307102
    163   0.000000  60.123856
    920   0.000000  65.371675
    916   0.000000 176.646092
    975   0.000000 170.088527
   1503   0.000000  89.372364
   1111   0.000000 177.765410
    587   0.000000  70.903016
    728   0.000000  64.690847
   1064   0.000000  63.598784
    714   0.000000 114.800284
    518   0.000000 147.936461
    119   0.000000  41.078046
    689   0.000000  58.125498
   1317   0.000000 159.633963
   1350   0.000000  54.677325
    543   0.000000 128.162714
    771   0.000000  55.980782
    626   0.000000  53.240483
   1179   0.000000  77.448644
    925   0.000000 124.989206
    867   0.000000  75.518061
   1094   0.000000  50.227030
     62   0.000000  93.866229
    502   0.000000 120.992641
    392   0.000000 102.069331
    776   0.000000  62.950172
    375   0.000000 103.748601
    634   0.000000  51.915815
    600   0.000000 152.918944
    529   0.000000 171.717328
    889   0.000000  52.446608
    646   0.000000 114.777951
   1017   0.000000 171.896777
   1282   0.000000 103.597067
    937   0.000000  68.955328
   1391   0.000000  57.799140
   1126   0.000000 134.938082
    189   0.000000 177.426430
   1077   0.000000  56.704986
    412   0.000000 144.191092
    924   0.000000 114.419789
   1519   0.000000 141.516420
   1554   0.000000  65.944180
    880   0.000000 175.494848
   1158   0.000000 161.466411
    796   0.000000  66.981404
   1322   0.000000  52.901147
    244   0.000000 106.147175
    329   0.000000 124.653621
    158   0.000000 158.503873
    800   0.000000 125.972600
    388   0.000000 126.728795
    798   0.000000 178.582840
    480   0.000000 107.023981
    655   0.000000  61.626633
      1   0.000000 175.401245
    401   0.000000  64.248778
   1272   0.000000 178.927096
     97   0.000000 135.169938
   1397   0.000000 120.957971
   1426   0.000000  49.320287
    802   0.000000 119.591644
    967   0.000000  57.721814
   1047   0.000000  78.669062
    643   0.000000  63.481587
   1152   0.000000 111.045358
   1042   0.000000 154.952358
     61   0.000000  45.437756
    862   0.000000 139.698874
    769   0.000000 124.972407
   1125   0.000000  76.209535
   1562   0.000000  58.620295
    702   0.000000  56.967555
   1544   0.000000 159.537135
     68   0.000000  53.232180
    615   0.000000  54.435460
   1066   0.000000 125.685028
    939   0.000000 117.853754
    590   0.000000 163.390233
     36   0.000000 178.483510
     94   0.000000 119.672336
   1181   0.000000  55.164286
   1252   0.000000  49.209519
    721   0.000000 139.655655
    791   0.000000 113.238145
    346   0.000000 143.487312
    203   0.000000 122.245117
   1084   0.000000  58.543425
   1033   0.000000  57.980377
     53   0.000000  73.701112
     89   0.000000  99.962815
   1353   0.000000  49.935992
   1409   0.000000 143.578489
    496   0.000000  54.829201
    979   0.000000  59.420653
    963   0.000000 117.556901
   1301   0.000000  45.021870
   1413   0.000000  79.030841
    621   0.000000 104.081732
   1436   0.000000 139.284302
   1278   0.000000  57.034409
    703   0.000000  69.937111
   1279   0.000000 115.132683
    314   0.000000 158.133022
   1030   0.000000 129.495440
    469   0.000000 119.327411
    363   0.000000 121.148239
   1244   0.000000  64.921917
    508   0.000000 121.301182
    974   0.000000 114.496754
   1176   0.000000 150.185197
    222   0.000000  58.341484
   1489   0.000000 152.820575
    790   0.000000  56.928201
    929   0.000000 172.091380
    989   0.000000 167.587157
   1374   0.000000  61.802935
    335   0.000000 176.699507
   1172   0.000000 136.513015
    811   0.000000  53.117328
    820   0.000000 107.113304
   1369   0.000000 151.284607
   1183   0.000000 170.844946
   1008   0.000000  56.922038
      2   0.000000  55.426443
   1306   0.000000 155.448644
    473   0.000000 171.170280
   1100   0.000000  77.528217
    850   0.000000 163.995879
      7   0.000000  58.305958
    311   0.000000 156.783839
    127   0.000000  88.737288
    460   0.000000 148.134092
    553   0.000000  79.310820
   1194   0.000000 172.990345
   1373   0.000000  98.844788
    520   0.000000  70.767561
    782   0.000000  68.935194
    512   0.000000 121.873243
    152   0.000000  58.339782
    466   0.000000 115.341153
    892   0.000000  56.372105
    595   0.000000 128.976219
   1491   0.000000  83.424412
   1395   0.000000 116.878448
    928   0.000000  51.500375
   1161   0.000000 122.723099
   1310   0.000000 151.400318
    632   0.000000 166.710487
   1162   0.000000 109.296608
   1045   0.000000  54.261997
   1464   0.000000 140.451984
    413   0.000000 171.453651
     92   0.000000  93.198589
     90   0.000000  41.971349
    115   0.000000 143.648087
    577   0.000000  46.172276
   1099   0.000000  68.611260
   1389   0.000000  59.079308
   1284   0.000000  57.893328
    423   0.000000  67.209462
    571   0.000000  47.968493
    651   0.000000 119.717475
    255   0.000000  52.038848
    770   0.000000 121.772221
   1330   0.000000 177.867736
    405   0.000000 110.266993
    745   0.000000  52.640688
    898   0.000000  55.530118
    900   0.000000 114.866149
    344   0.000000 137.080596
   1015   0.000000  58.889496
   1476   0.000000 123.267788
   1104   0.000000 140.858601
    750   0.000000  61.775750
    374   0.000000 167.373446
   1255   0.000000 107.009402
   1226   0.000000 128.536360
    250   0.000000 169.262977
    793   0.000000  58.917657
     39   0.000000 179.066043
    687   0.000000  61.804519
   1009   0.000000 121.471549
   1445   0.000000 172.494839
   1087   0.000000 159.650053
     74   0.000000 161.884091
    701   0.000000 126.904667
    712   0.000000 178.837514
   1074   0.000000 118.791230
   1553   0.000000 116.545642
   1170   0.000000  63.776463
   1014   0.000000 130.851273
    966   0.000000  59.450781
    637   0.000000 176.835585
   1486   0.000000 139.416595
    580   0.000000 141.533724
     67   0.000000  55.782048
   1337   0.000000  65.854415
    134   0.000000 142.840547
    730   0.000000 100.989884
   1107   0.000000 147.009436
   1492   0.000000  68.294638
   1437   0.000000  67.603657
    293   0.000000 100.790831
    879   0.000000 123.048240
    876   0.000000  71.483402
    981   0.000000  55.591773
   1361   0.000000 155.210384
    204   0.000000 175.137924
    838   0.000000 152.157731
     16   0.000000  56.325102
    899   0.000000 177.905250
   1460   0.000000  67.551676
    438   0.000000  97.054510
     45   0.000000  95.699177
    624   0.000000 104.009487
    352   0.000000  62.927641
    527   0.000000 123.123980
    265   0.000000 165.389734
   1559   0.000000  58.656052
   1522   0.000000  71.747671
   1346   0.000000 171.828315
    692   0.000000 178.153703
   1178   0.000000  73.014872
    546   0.000000 159.742008
   1488   0.000000 151.187241
    359   0.000000 174.738592
    960   0.000000 174.172621
    355   0.000000 111.810951
   1526   0.000000 110.586918
    792   0.000000 115.227600
   1288   0.000000 106.348878
     19   0.000000 130.851058
    301   0.000000  54.302137
     13   0.000000 172.028021
    818   0.000000 163.617845
     43   0.000000  86.622842
    159   0.000000 156.608616
   1551   0.000000  68.406693
    926   0.000000 176.910102
    386   0.000000 163.319584
   1109   0.000000  55.626447
   1477   0.000000 108.793562
     20   0.000000  61.634962
    103   0.000000  67.688195
   1007   0.000000 134.488303
    451   0.000000 112.767457
    354   0.000000 129.746391
    262   0.000000  99.787041
   1264   0.000000  99.167388
   1296   0.000000 144.387969
    938   0.000000  66.505865
   1328   0.000000 123.666809
    291   0.000000 133.207632
    994   0.000000 116.249434
   1041   0.000000 176.532720
   1457   0.000000 176.377347
    140   0.000000 137.005873
    913   0.000000 113.842648
    429   0.000000 149.593286
   1267   0.000000  52.402253
    911   0.000000 125.150709
    673   0.000000  69.703978
   1095   0.000000 100.148391
   1286   0.000000 148.624603
    608   0.000000  54.098970
   1082   0.000000 104.357759
    710   0.000000  61.291258
    788   0.000000 174.119686
    943   0.000000  48.898426
    815   0.000000 161.303077
    246   0.000000 110.831730
    336   0.000000 173.330110
   1119   0.000000 178.162895
   1138   0.000000 151.715439
   1316   0.000000 159.920072
    497   0.000000  42.840354
    261   0.000000  65.602693
    144   0.000000  92.480900
    112   0.000000 157.411370
    908   0.000000 116.867058
    282   0.000000 111.781637
   1485   0.000000  67.762829
     47   0.000000 144.681249
   1466   0.000000  65.200979
   1549   0.000000  68.034669
   1290   0.000000 154.972558
     29   0.000000 133.396453
    990   0.000000 109.518804
    256   0.000000  53.482413
   1266   0.000000  60.495334
    224   0.000000 109.543481
   1340   0.000000 124.725531
    597   0.000000  64.838852
    819   0.000000 151.343956
   1135   0.000000  48.198692
    627   0.000000 102.283054
   1122   0.000000  53.482925
     77   0.000000  48.428473
   1151   0.000000 109.829629
    268   0.000000  75.980318
    238   0.000000 112.792387
    416   0.000000  98.242919
    248   0.000000 162.028581
   1001   0.000000 162.471387
   1358   0.000000 107.051726
   1191   0.000000 114.961468
    644   0.000000  59.141079
   1012   0.000000  64.549511
    169   0.000000 111.611752
   1416   0.000000 157.897498
    614   0.000000  97.473321
    585   0.000000 146.904256
    661   0.000000  59.324264
    431   0.000000  70.796493
    842   0.000000 104.821655
    551   0.000000  37.877278
     56   0.000000  66.866591
    684   0.000000 167.817609
     86   0.000000  83.276533
   1511   0.000000 122.768991
    946   0.000000 175.640381
   1564   0.000000 116.391614
   1211   0.000000 141.693614
   1248   0.000000  98.330715
    190   0.000000 131.604527
    868   0.000000  73.730046
   1254   0.000000 150.613748
   1148   0.000000 105.942328
    962   0.000000  58.106120
    400   0.000000  60.529298
    171   0.000000 119.568431
    847   0.000000 109.999556
   1319   0.000000  57.845673
   1231   0.000000  61.287220
   1136   0.000000  96.029351
   1542   0.000000 132.428196
    199   0.000000 178.915173
   1354   0.000000  96.860706
    464   0.000000  63.498284
    175   0.000000  60.744232
    180   0.000000 146.652281
    930   0.000000 113.990688
    380   0.000000  44.658005
   1298   0.000000  53.656694
    866   0.000000  43.772557
    183   0.000000 142.784119
    541   0.000000  54.881559
   1218   0.000000 121.460311
   1261   0.000000 101.404230
    306   0.000000 148.914024
   1198   0.000000 109.149376
    361   0.000000 176.083313
    253   0.000000 139.540172
    612   0.000000 147.456084
    813   0.000000 109.428071
    570   0.000000  94.140769
    102   0.000000 149.985523
    717   0.000000 117.546256
    292   0.000000  55.754060
   1363   0.000000 156.987717
    725   0.000000 130.038141
   1321   0.000000 101.788291
    298   0.000000  45.036772
   1300   0.000000  90.731275
    210   0.000000  52.892807
    652   0.000000 179.618742
   1343   0.000000 127.194243
    274   0.000000 135.346057
    918   0.000000 117.982233
   1207   0.000000 146.293348
   1289   0.000000 109.263153
   1454   0.000000 127.266902
   1498   0.000000 132.710130
    958   0.000000 111.873778
    605   0.000000 141.131634
    885   0.000000 176.368809
   1076   0.000000  55.676229
   1132   0.000000  70.464154
    109   0.000000  58.940543
   1212   0.000000 141.532138
    308   0.000000 106.333409
    550   0.000000  45.805162
    860   0.000000  97.768879
   1452   0.000000 115.659522
    404   0.000000 114.120893
    186   0.000000  64.233727
    807   0.000000  64.172066
    591   0.000000 131.770915
   1044   0.000000  72.116583
    742   0.000000  95.722047
    284   0.000000  57.036478
    572   0.000000  47.851784
   1324   0.000000  56.553442
    364   0.000000 118.442658
    865   0.000000  44.322277
    628   0.000000  49.042571
    315   0.000000 112.391059
    155   0.000000  55.000112
    772   0.000000 115.525079
    138   0.000000 106.006935
    455   0.000000 120.184081
    656   0.000000  64.080603
   1461   0.000000 151.996340
    982   0.000000  61.056654
    858   0.000000 142.091156
    995   0.000000  58.181081
    390   0.000000  69.951621
    290   0.000000 133.307087
   1229   0.000000  64.958080
    162   0.000000 121.036008
   1479   0.000000  68.211525
    983   0.000000  60.373517
    266   0.000000 118.629949
    635   0.000000 116.158794
   1269   0.000000 177.611979
   1381   0.000000 175.465945
    482   0.000000 151.234067
    894   0.000000 111.902224
   1105   0.000000  66.851087
    583   0.000000  68.230730
    910   0.000000 171.197919
    332   0.000000  67.482707
   1143   0.000000 107.064439
   1201   0.000000  58.028877
    391   0.000000  63.482078
    942   0.000000 135.461193
    147   0.000000 168.979012
    834   0.000000 100.324543
   1038   0.000000 104.416138
   1406   0.000000  87.075366
    449   0.000000  55.345611
    511   0.000000 125.930360
     59   0.000000 104.249680
   1025   0.000000  61.195035
    300   0.000000  59.918946
    258   0.000000  46.304627
   1232   0.000000 106.693264
    474   0.000000 129.408982
    884   0.000000 110.517743
    263   0.000000 175.767359
     33   0.000000  94.893647
    559   0.000000 125.115982
    411   0.000000 100.055371
    603   0.000000  72.079789
    874   0.000000 146.589233
    467   0.000000 174.761891
    844   0.000000  97.449396
    200   0.000000 128.192019
   1185   0.000000 167.942064
    441   0.000000  63.315846
    456   0.000000  57.421846
    408   0.000000 117.565989
   1072   0.000000 174.467460
     95   0.000000 166.838596
    231   0.000000 121.418526
    145   0.000000  47.593389
    271   0.000000  67.678928
   1020   0.000000 174.497921
   1390   0.000000 124.395748
    535   0.000000  63.977852
    339   0.000000 120.531200
    457   0.000000  62.762236
   1501   0.000000 150.449783
   1380   0.000000 123.384903
    184   0.000000  66.873664
    683   0.000000  58.626876
    318   0.000000  96.882752
    432   0.000000  82.610925
    421   0.000000  45.308684
   1217   0.000000 116.341712
    434   0.000000  60.972550
    592   0.000000 131.528371
   1312   0.000000 106.811391
   1480   0.000000  59.727125
   1412   0.000000 125.098367
    257   0.000000 119.085106
   1005   0.000000 127.879497
    891   0.000000  65.851065
   1090   0.000000  44.371092
    319   0.000000 107.032883
    625   0.000000  54.966916
    117   0.000000  72.414328
   1539   0.000000  59.097772
   1469   0.000000 149.243780
    984   0.000000 112.394377
   1085   0.000000 109.423023
   1420   0.000000 150.126795
    630   0.000000 105.272304
   1114   0.000000  65.473118
    463   0.000000  76.241316
    379   0.000000 108.282851
    485   0.000000  52.450224
    530   0.000000 115.811117
     87   0.000000  99.059665
   1372   0.000000  47.801899
   1083   0.000000 154.279120
   1208   0.000000 144.209646
   1292   0.000000  54.121636
   1002   0.000000 136.491513
    720   0.000000  81.032668
   1474   0.000000 121.310701
    185   0.000000  75.910455
    141   0.000000 167.355009
   1216   0.000000  57.882031
    181   0.000000  70.563600
   1203   0.000000 123.992923
   1195   0.000000  51.120500
   1493   0.000000  69.396163
   1459   0.000000 116.079527
    245   0.000000 158.186023
    227   0.000000  62.284924
   1550   0.000000 127.787745
   1078   0.000000  55.292294
    417   0.000000 135.612114
   1121   0.000000 121.497050
   1037   0.000000  69.046558
    444   0.000000  59.108505
   1168   0.000000  72.944087
   1463   0.000000 132.752655
   1251   0.000000 104.061566
   1534   0.000000 163.703355
    407   0.000000 155.575677
    601   0.000000 133.332423
   1379   0.000000  64.439877
   1054   0.000000  94.801850
   1383   0.000000 172.175220
    367   0.000000  69.569876
    211   0.000000  63.228332
    639   0.000000  61.438183
   1304   0.000000  93.804536
    715   0.000000  58.280601
    506   0.000000 175.815073
    804   0.000000 178.607822
    917   0.000000  54.330861
    544   0.000000 126.976837
   1000   0.000000 153.273193
    123   0.000000  99.457734
   1417   0.000000  98.757415
   1308   0.000000  93.268538
   1414   0.000000  61.795503
   1173   0.000000 146.038340
   1080   0.000000  54.130729
    107   0.000000  62.572009
    951   0.000000  57.975240
   1023   0.000000 109.064195
    366   0.000000  63.507585
     23   0.000000 178.768172
   1424   0.000000 110.185220
    666   0.000000 179.668135
   1294   0.000000 152.800200
   1120   0.000000 110.148769
   1394   0.000000  65.316439
   1157   0.000000  70.553296
    662   0.000000 123.507857
    458   0.000000  78.912426
    331   0.000000  63.340688
    297   0.000000  66.082591
    809   0.000000  51.803152
    384   0.000000 132.117273
    448   0.000000 121.885124
   1537   0.000000 129.713906
   1565   0.000000 166.993076
    342   0.000000  65.948710
    425   0.000000 134.191823
   1171   0.000000  73.023468
    707   0.000000 171.789659
    837   0.000000  57.514974
    737   0.000000 108.825322
    609   0.000000  43.374352
    760   0.000000  58.019100
   1056   0.000000 150.695538
   1303   0.000000  48.429719
   1399   0.000000 110.650937
    305   0.000000 103.172062
    328   0.000000 162.926890
   1382   0.000000 122.120910
    799   0.000000 129.614008
   1190   0.000000  63.840968
    883   0.000000  58.071135
   1555   0.000000 127.062744
   1225   0.000000  63.578280
    452   0.000000 177.230735
   1006   0.000000  66.842398
    736   0.000000  88.040977
    207   0.000000 116.432295
    803   0.000000 171.394796
    729   0.000000  56.030267
      5   0.000000 120.598836
    836   0.000000 100.213976
    953   0.000000 126.402650
    524   0.000000  67.182947
    657   0.000000 123.981870
    873   0.000000 135.646062
    996   0.000000  58.068353
   1204   0.000000  63.885347
    713   0.000000 175.826857
    856   0.000000 146.540510
    617   0.000000 158.444947
    620   0.000000  50.841249
   1257   0.000000  49.761644
    398   0.000000 128.491995
    568   0.000000 169.305184
   1063   0.000000  59.103586
    340   0.000000  64.113310
    532   0.000000 179.788969
   1073   0.000000  62.086244
   1116   0.000000 116.363987
   1329   0.000000  59.189824
    170   0.000000 178.840136
    557   0.000000  83.682439
    479   0.000000  54.573757
   1142   0.000000 141.890204
    732   0.000000  52.795056
    755   0.000000 115.386429
    108   0.000000  65.216693
    854   0.000000 169.137214
    759   0.000000 177.604040
    177   0.000000  65.577485
   1366   0.000000  57.242780
    693   0.000000 108.216591
    969   0.000000 112.797915
    142   0.000000  54.015115
   1046   0.000000 132.931059
   1556   0.000000 117.276347
   1423   0.000000  44.817049
    259   0.000000 122.284945
   1189   0.000000  71.844458
   1153   0.000000  56.901817
   1192   0.000000  63.016733
   1071   0.000000 118.506400
    383   0.000000  94.449028
    312   0.000000 150.726189
   1331   0.000000 116.277850
   1428   0.000000  99.687985
    633   0.000000 129.807926
    337   0.000000  52.798910
    514   0.000000  58.989499
    872   0.000000  64.162660
    706   0.000000 127.183768
    647   0.000000 178.858554
    174   0.000000 120.015938
   1504   0.000000  92.747093
    167   0.000000 128.372310
   1086   0.000000 102.914517
    120   0.000000 153.939493
   1123   0.000000  68.014125
   1241   0.000000 128.338721
    992   0.000000  70.982672
    901   0.000000 176.758330
   1055   0.000000 148.874637
   1545   0.000000 144.491107
    671   0.000000  64.183593
    471   0.000000 111.263607
    399   0.000000 124.778075
    676   0.000000 115.659525
    132   0.000000 106.602773
     82   0.000000  56.455123
    236   0.000000  58.730876
   1440   0.000000 152.555650
    387   0.000000  63.246717
    537   0.000000 118.717436
   1079   0.000000 113.835719
    101   0.000000  84.768830
     10   0.000000  61.668845
    674   0.000000  46.348694
    515   0.000000  74.113031
    317   0.000000  51.140790
     35   0.000000 135.731285
    415   0.000000 142.378640
   1053   0.000000  56.691444
   1164   0.000000 176.991205
    148   0.000000 113.978900
     38   0.000000 127.987006
   1165   0.000000  55.028502
   1305   0.000000 106.561500
   1271   0.000000 112.897587
    243   0.000000 114.312653
    976   0.000000 179.378754
    623   0.000000 157.249970
   1028   0.000000  71.515063
   1224   0.000000 174.223743
   1281   0.000000  51.369825
     78   0.000000 155.514788
   1223   0.000000 114.097601
    196   0.000000  56.670056
    823   0.000000 101.348942
    205   0.000000 178.313910
   1517   0.000000 150.733618
    173   0.000000  59.271706
   1210   0.000000  72.196608
   1365   0.000000 108.285669
    218   0.000000 120.876866
    694   0.000000  57.465093
    853   0.000000 117.533174
   1299   0.000000  45.709405
   1103   0.000000 146.139477
   1427   0.000000 105.309746
    160   0.000000  44.887511
    877   0.000000  64.977105
    476   0.000000  59.420738
    700   0.000000 136.192818
   1342   0.000000 122.480188
    563   0.000000 127.871642
   1275   0.000000  68.175317
   1506   0.000000  65.066301
   1444   0.000000 137.226619
   1531   0.000000  66.582740
   1510   0.000000  55.111552
    762   0.000000 119.584940
    307   0.000000  44.392779
    192   0.000000 118.339843
     71   0.000000 144.883729
    680   0.000000 162.008219
    309   0.000000  95.492918
     31   0.000000  37.697277
    718   0.000000  56.519683
    461   0.000000 145.462981
    322   0.000000  70.256784
    773   0.000000 175.277607
    761   0.000000 116.504236
   1242   0.000000 128.602712
    330   0.000000  61.312933
   1368   0.000000 100.241718
    830   0.000000  44.230652
    752   0.000000 128.785281
   1245   0.000000  55.492495
    225   0.000000  48.291101
     73   0.000000 149.687436
    249   0.000000 145.932571
    278   0.000000  67.667129
    839   0.000000 154.964370
    751   0.000000  53.610679
    669   0.000000 130.640079
    320   0.000000  61.290921
     66   0.000000 104.210521
   1348   0.000000 119.094398
   1163   0.000000 164.332814
    849   0.000000 107.909288
   1527   0.000000 177.169658
    695   0.000000 109.374533
   1287   0.000000  52.227242
      3   0.000000 117.095288
    164   0.000000 119.395561
   1180   0.000000  50.631467
   1130   0.000000 149.412809
   1351   0.000000 112.794281
   1513   0.000000 177.880542
    961   0.000000 179.855743
    435   0.000000 165.035378
    971   0.000000 132.189659
     26   0.000000 143.819213
    172   0.000000  58.824198
    768   0.000000 175.275066
    688   0.000000  71.750996
   1150   0.000000  55.686088
    522   0.000000 134.413658
   1050   0.000000  50.550151
    281   0.000000 166.446643
   1214   0.000000  69.497006
   1523   0.000000  81.467747
    805   0.000000 114.435756
    178   0.000000 151.638397
   1259   0.000000 148.929031
    422   0.000000  44.135721
     22   0.000000 172.823840
    988   0.000000  51.337723
    833   0.000000 109.348162
    828   0.000000  45.038199
    940   0.000000 128.580576
   1075   0.000000 112.381216
    214   0.000000 175.894802
    338   0.000000 109.216800
    709   0.000000 122.881885
   1447   0.000000 119.542029
    795   0.000000  58.991196
    921   0.000000  63.651372
    402   0.000000  60.233231
    517   0.000000 144.880592
    594   0.000000 164.334262
   1538   0.000000 168.668046
   1147   0.000000 160.085869
    955   0.000000 175.491230
    368   0.000000  59.622136
     44   0.000000  52.946951
    993   0.000000 129.051025
    653   0.000000 174.391497
   1410   0.000000  64.547649
     49   0.000000  74.751047
    789   0.000000 172.155802
    560   0.000000 172.967765
    573   0.000000  96.554047
    832   0.000000  48.380788
    787   0.000000 117.809743
      8   0.000000 129.666021
   1496   0.000000 107.112018
    665   0.000000 116.148271
    859   0.000000  53.996322
    289   0.000000 166.773967
   1448   0.000000  56.835317
    156   0.000000 146.496014
    699   0.000000  66.255706
    161   0.000000  68.248455
    686   0.000000 133.555515
    864   0.000000  88.094834
   1052   0.000000 165.052764
     41   0.000000 177.677981
   1326   0.000000 110.754369
     42   0.000000 129.375068
    565   0.000000  89.285326
    191   0.000000  59.696766
    507   0.000000  62.311683
    202   0.000000 119.608281
    487   0.000000  96.660310
   1433   0.000000  50.367698
     32   0.000000  45.202672
    748   0.000000  51.315558
   1429   0.000000 103.345087
   1515   0.000000 138.264529
   1508   0.000000  57.702689
   1196   0.000000 126.857701
    509   0.000000  63.046615
     60   0.000000 152.702539
    739   0.000000 160.140880
    195   0.000000  58.643078
    395   0.000000 129.438674
    968   0.000000  67.823331
   1456   0.000000 172.435278
    362   0.000000  57.640654
    503   0.000000 117.134116
    536   0.000000 134.101940
     91   0.000000 140.364849
     11   0.000000 110.359177
    897   0.000000 121.228212
   1377   0.000000 122.731120
    631   0.000000  62.802305
    648   0.000000 121.240179
    611   0.000000  94.215601
    129   0.000000 165.255777
    420   0.000000  89.444405
   1401   0.000000  67.154176
   1274   0.000000  63.794412
    598   0.000000  80.839155
    978   0.000000  64.366328
    273   0.000000 112.952458
    588   0.000000  63.894823
    985   0.000000 131.356189
    578   0.000000  73.302993
    501   0.000000  57.946025
    491   0.000000  44.210085
   1512   0.000000  98.966480
    747   0.000000 110.493013
   1145   0.000000 144.228043
    287   0.000000  67.224496
    419   0.000000  90.303430
    618   0.000000 109.402375
   1451   0.000000  67.963131
    607   0.000000  73.748633
   1339   0.000000  61.502746
   1520   0.000000 139.497634
   1509   0.000000 164.032781
   1470   0.000000  60.861132
    106   0.000000 127.788702
    396   0.000000 170.978707
    345   0.000000 145.075515
    237   0.000000 112.289990
   1396   0.000000 175.967376
   1490   0.000000 138.884787
    734   0.000000 104.110613
    622   0.000000 153.124303
    234   0.000000 126.291484
    810   0.000000  54.189774
   1069   0.000000  62.830170
    763   0.000000  61.099804
    143   0.000000 109.015227
   1478   0.000000  60.449569
    794   0.000000  56.309943
   1376   0.000000  61.581968
    283   0.000000 111.701485
    128   0.000000 140.535780
   1263   0.000000  55.563042
   1209   0.000000 146.271254
    973   0.000000  55.076101
    193   0.000000 168.698707
    442   0.000000  70.676226
    498   0.000000  93.106547
   1370   0.000000  52.439819
   1117   0.000000 175.621888
   1536   0.000000 120.715820
   1205   0.000000  74.096740
   1359   0.000000  46.924714
    808   0.000000 115.975218
    521   0.000000 137.950508
    235   0.000000 171.523263
    875   0.000000  75.105831
    275   0.000000 169.988936
   1199   0.000000 177.978200
    232   0.000000  67.058211
    888   0.000000  60.029876
   1432   0.000000 154.630033
    552   0.000000  89.994364
    576   0.000000  94.874540
   1051   0.000000 104.622939
    357   0.000000 117.097938
    406   0.000000 160.288602
   1227   0.000000 122.197977
    726   0.000000 139.311677
    427   0.000000 139.610221
    403   0.000000  57.332759
   1062   0.000000  60.429825
    767   0.000000 115.730768
    744   0.000000 163.133701
   1235   0.000000 118.845702
   1247   0.000000 104.702014
     55   0.000000 143.977983
    302   0.000000  98.694917
    896   0.000000 171.238255
    604   0.000000 145.828422
    581   0.000000 147.563261
    909   0.000000  59.779035
     14   0.000000 122.305876
   1471   0.000000 107.659555
    118   0.000000  75.264125
    247   0.000000  58.431247
    349   0.000000 145.380802
   1010   0.000000 168.589658
    483   0.000000 165.925580
    397   0.000000  64.243218
   1388   0.000000  53.345036
   1027   0.000000  51.812245
   1487   0.000000  71.121957
    135   0.000000 165.360962
    472   0.000000 172.325797
    230   0.000000 174.574913
    690   0.000000 115.590591
    369   0.000000 128.660471
    749   0.000000  59.177456
    642   0.000000  67.005621
   1187   0.000000  62.146310
    764   0.000000  58.485136
   1355   0.000000  54.611907
     93   0.000000  57.991466
    895   0.000000 125.722644
     57   0.000000 149.648277
     52   0.000000 140.567703
   1026   0.000000 113.007280
   1233   0.000000 124.704024
    722   0.000000 155.653497
    376   0.000000 171.717393
   1408   0.000000  60.550718
     27   0.000000  98.616541
   1375   0.000000 126.242812
    944   0.000000 162.464097
    835   0.000000 153.202443
    887   0.000000 125.880941
    326   0.000000 135.760177
    784   0.000000 127.852851
    288   0.000000 121.737196
    949   0.000000 113.565670
   1039   0.000000  50.536221
   1137   0.000000  97.239204
   1144   0.000000 161.207980
    228   0.000000 126.191813
    313   0.000000  51.100138
    439   0.000000 167.730736
   1291   0.000000 160.005572
    547   0.000000 154.382519
    324   0.000000 169.842987
   1184   0.000000 105.795754
   1036   0.000000  83.301693
    786   0.000000 126.962657
   1438   0.000000 155.169724
    513   0.000000  62.883744
   1403   0.000000  55.009405
   1386   0.000000  61.149152
   1048   0.000000  44.251699
    299   0.000000 104.955717
   1154   0.000000  54.143541
   1364   0.000000 151.472613
     18   0.000000  63.271763
    660   0.000000 105.852064
    846   0.000000  61.227926
   1384   0.000000 111.026068
    658   0.000000  59.901267
    157   0.000000 101.608504
    817   0.000000  52.781048
   1110   0.000000 121.099565
    533   0.000000 110.086943
   1543   0.000000  72.675120
     98   0.000000  47.166260
   1093   0.000000 147.662461
   1334   0.000000 120.055341
     72   0.000000  48.452859
    857   0.000000 166.304804
   1552   0.000000 174.316961
    691   0.000000  51.249036
    124   0.000000 153.666177
   1307   0.000000 151.650209
   1302   0.000000  44.838818
    221   0.000000 106.632585
     65   0.000000  57.649184
    125   0.000000 112.861448
    668   0.000000 165.176328
   1250   0.000000 162.501898
    640   0.000000 124.919770
    593   0.000000  99.495410
   1345   0.000000 113.711358
    534   0.000000 177.304712
    783   0.000000 175.837206
    599   0.000000  65.949422
    494   0.000000 147.935748
   1378   0.000000 176.076155
    947   0.000000  62.074711
    554   0.000000 127.162604
   1415   0.000000 148.077702
    882   0.000000 123.601315
   1236   0.000000  49.134782
     83   0.000000 103.621383
    272   0.000000  58.207299
   1133   0.000000  78.388229
   1186   0.000000 120.213478
    241   0.000000  55.881406
   1034   0.000000 127.026936
    855   0.000000 102.767953
    677   0.000000 110.784960
    226   0.000000  59.133603
   1482   0.000000 127.938650
   1502   0.000000 144.483916
   1253   0.000000 153.823210
    724   0.000000  65.347293
   1013   0.000000  54.413390
    586   0.000000  76.001241
    679   0.000000 103.381343
    351   0.000000  77.843889
   1115   0.000000 122.138963
   1237   0.000000 177.737494
    216   0.000000 132.490549
   1333   0.000000  54.200927
    166   0.000000  52.787553
   1070   0.000000 175.211386
    360   0.000000 121.753824
   1442   0.000000  71.680644
    356   0.000000 175.318536
   1031   0.000000 161.458001
   1091   0.000000 141.806522
    341   0.000000  56.417890
    484   0.000000 115.659386
    965   0.000000  62.298843
   1283   0.000000 157.718703
    567   0.000000 175.840134
   1096   0.000000  97.435430
    766   0.000000  62.022234
   1260   0.000000 156.967271
   1450   0.000000  59.303771
    110   0.000000 130.174302
    824   0.000000 145.579594
   1206   0.000000  72.174514
      6   0.000000 119.974802
    538   0.000000  48.593348
    923   0.000000  67.184003
   1016   0.000000 120.084531
    242   0.000000  54.950324
    869   0.000000 139.680721
    198   0.000000  62.938225
   1434   0.000000 155.002269
   1530   0.000000  53.116437
    443   0.000000  62.776619
     28   0.000000  48.925566
    426   0.000000 143.197252
    757   0.000000 173.405529
    126   0.000000  54.103259
   1347   0.000000 173.771723
    526   0.000000  54.180732
   1024   0.000000  57.251950
   1402   0.000000 122.163581
    708   0.000000 115.269976
    153   0.000000 100.164091
    589   0.000000  67.633549
   1035   0.000000 152.348252
    629   0.000000  53.356489
    893   0.000000  64.856107
   1357   0.000000 154.103486
    999   0.000000 139.884409
    481   0.000000  60.830185
    251   0.000000  51.196851
   1561   0.000000 108.372780
    303   0.000000  52.031272
    681   0.000000  64.436266
    269   0.000000 133.183279
    616   0.000000 148.314571
   1439   0.000000 135.763706
   1484   0.000000 169.243131
     99   0.000000  79.754273
    525   0.000000  61.630384
    114   0.000000 141.087788
   1131   0.000000 148.852383
   1435   0.000000  84.951993
   1182   0.000000 117.310596
    956   0.000000 116.040450
    698   0.000000 166.839627
   1419   0.000000  48.389717
    575   0.000000  48.702263
    105   0.000000 130.260204
    201   0.000000  58.705629
   1019   0.000000 113.302886
     64   0.000000 106.102043
   1032   0.000000 149.671371
    777   0.000000  59.544298
    650   0.000000  55.636872
    922   0.000000  62.919414
   1222   0.000000 179.055681
   1541   0.000000  83.080697
    393   0.000000  68.909376
   1481   0.000000 131.029744
   1285   0.000000 103.602733

Angles # ['angleID', 'angleType', 'atom1', 'atom2', 'atom3']

       972       972        66        67        68
       756       756        44        53        54
       886       886        62        61        72
       915       915        52        63        76
       149       149         9        10       107
        15        15        98         1       108
      1029      1029        59        72        61
       182       182         3        12        21
       812       812        46        57        58
      1018      1018        70        71        73
      1112      1112        65        78        87
       212       212         5        15        16
       347       347        23        24        35
       574       574        49        40        52
       350       350        25        24        36
       613       613        31        44        55
       240       240        25        16        26
       542       542        26        39        40
       295       295        21        20        30
       741       741        42        52        51
       133       133        10         9       107
       941       941        54        65        87
        40        40        13         3       101
      1407      1407        88        97       108
      1280      1280        99        89       100
       510       510        35        36        38
       731       731        40        52        43
       619       619        43        44        45
       582       582        29        41        40
      1311      1311        83        91       103
       912       912        52        63        53
       829       829        68        57        70
       584       584        29        41        52
       462       462        32        33        45
      1362      1362        85        94        96
       325       325        13        22        35
       740       740        42        52        43
       878       878        50        61        62
      1249      1249        78        88        97
      1193      1193        74        84        93
      1293      1293        82        90       100
       822       822        56        57        68
      1101      1101        64        77        86
      1387      1387       106        95       108
       333       333        14        23        22
        48        48         3         4        14
      1159      1159        68        81        90
       371       371        16        26        39
       223       223        23        15        24
      1385      1385        97        95       108
       903       903        61        62        76
       531       531        26        38        39
       927       927        54        64        63
      1518      1518         7       105       104
       504       504        24        36        48
       378       378        25        26        39
      1268      1268        79        89        98
       840       840        48        58        57
      1230      1230        65        87        77
       519       519        36        37        47
      1483      1483        91       102       103
       705       705        40        50        51
       780       780        44        55        45
      1418      1418         1        98        99
       394       394        18        28        40
      1356      1356        84        94        95
       446       446        20        32        44
      1057      1057        73        74        75
      1265      1265        97        88        98
       746       746        43        52        63
       827       827        58        57        70
       233       233         6        16        25
      1174      1174        81        82        83
      1234      1234        65        87        96
       863       863        58        59        72
      1505      1505         7       104       105
       188       188         3        13        21
      1548      1548        95       107       106
      1297      1297        91        90       101
       187       187         3        13        14
        34        34        12         3        99
       528       528        25        38        48
       735       735        41        52        42
       902       902        61        62        75
      1458      1458        90       100       101
       343       343        15        24        25
      1256      1256        87        88        89
       267       267        10        18        29
       861       861        58        59        60
       558       558        28        40        41
       286       286        11        20        19
       753       753        43        53        63
      1118      1118        67        78        79
      1524      1524        93       105       106
      1022      1022        73        71        81
       165       165         1        11        21
       919       919        62        63        64
       111       111         6         8        17
      1155      1155        68        81        69
       365       365        26        25        38
       852       852        49        59        50
      1067      1067        61        75        85
       638       638        34        45        44
       440       440        32        31        43
       685       685        38        48        59
       372       372        17        26        25
        17        17         1         2        12
       779       779        65        54        66
      1465      1465         4       101       100
       711       711        49        50        61
       424       424        19        30        29
      1558      1558        10       108        98
      1221      1221        77        86        87
       987       987        57        68        67
      1059      1059        73        74        92
       450       450        21        32        44
      1081      1081        62        76        77
       475       475        35        34        47
       549       549        40        39        49
       121       121         7         9        18
       561       561        28        40        51
       447       447        20        32        45
       139       139       106         9       107
      1560      1560        95       108        97
       277       277        10        19        20
       264       264         9        18        29
       468       468        22        34        47
       758       758        44        53        64
      1507      1507        91       104        93
       932       932        63        64        76
       775       775        55        54        65
       499       499        37        35        47
      1262      1262        89        88        98
       906       906        75        62        76
       566       566        39        40        51
       410       410        18        29        30
      1295      1295        82        90       102
       556       556        27        40        52
       954       954        54        66        65
       229       229         5        16        25
       418       418        28        29        41
       381       381        38        26        39
       217       217        14        15        23
       851       851        48        59        72
       154       154        18        10       108
       636       636        33        45        46
       176       176         2        12         3
       208       208        13        14        15
       905       905        63        62        76
        84        84         7         6         8
        96        96        17         6       103
       931       931        63        64        65
       957       957        55        66        56
      1449      1449         3       100       101
       936       936        76        64        77
      1156      1156        68        81        71
      1175      1175        81        82        90
       321       321        32        21        33
      1061      1061        75        74        92
       964       964        65        66        67
        54        54        14         4       101
       280       280        11        19        20
      1325      1325        74        92        91
      1220      1220        77        86        85
       459       459        21        33        34
      1238      1238        77        87        96
       727       727        52        51        63
       785       785        45        55        46
       934       934        65        64        76
       825       825        58        57        68
       358       358        16        25        26
      1371      1371        95        94        96
        58        58         4         5        14
        70        70        14         5       102
      1092      1092        64        76        86
      1134      1134        67        80        68
      1392      1392        86        96        95
       914       914        52        63        64
       539       539        48        38        49
       279       279        10        19        30
      1405      1405        88        97        96
      1494      1494       102       103       104
      1097      1097        77        76        86
       765       765        44        54        53
      1327      1327        74        92       104
      1323      1323        74        92        83
       904       904        63        62        75
       150       150         9        10       108
      1166      1166        71        81        90
       428       428        20        30        31
        85        85         7         6        16
       194       194        14        13        22
       806       806        57        56        68
      1336      1336        91        92       104
        51        51         5         4        14
      1411      1411        96        97        98
      1421      1421         2        98        89
       370       370        16        26        38
       719       719        40        51        50
      1400      1400        88        96        97
       659       659        34        47        35
       945       945        64        65        87
       991       991        67        68        69
      1514      1514        93       104       105
      1525      1525       104       105       106
       254       254        18        17        27
      1058      1058        73        74        84
      1475      1475         5       102        90
       377       377        25        26        38
       841       841        48        58        59
       950       950        77        65        87
      1443      1443        89        99       100
       348       348        23        24        36
        30        30         4         3       100
       516       516        35        37        47
      1546      1546        10       107       106
       545       545        27        39        40
      1521      1521         9       105       104
      1563      1563        97       108        98
      1040      1040        60        73        74
       831       831        37        58        47
      1344      1344        92        93       104
      1453      1453        80       100       101
        24        24        12         2        99
      1089      1089        64        76        75
       122       122         7         9       105
       294       294        19        20        32
       478       478        46        34        47
      1139      1139        67        80       100
       826       826        58        57        69
       213       213         5        15        23
       667       667        35        47        58
       907       907        51        63        52
       197       197         3        14         5
      1472      1472         4       102        91
       663       663        34        47        58
      1313      1313        90        91        92
       146       146         9        10        18
      1335      1335        91        92        93
      1246      1246        78        88        87
      1060      1060        75        74        84
        88        88         7         6       104
       430       430        29        30        31
      1177      1177        83        82        90
      1338      1338        84        93        92
      1273      1273        80        89        99
      1197      1197        75        84        93
       505       505        25        36        35
       488       488        23        35        37
      1533      1533        93       106       105
       797       797        46        56        66
       130       130        10         9        18
       848       848        48        59        58
       948       948        66        65        87
      1557      1557        10       108        97
      1160      1160        69        81        71
       801       801        55        56        66
       209       209        13        14        23
       606       606        44        43        53
       373       373        17        26        27
       845       845        59        58        60
      1367      1367        86        94       106
       738       738        41        52        53
       754       754        43        53        64
       500       500        24        36        25
       219       219        14        15        25
        76        76        16         5       103
      1404      1404        88        97        95
       774       774        55        54        64
      1127      1127        67        79        89
       453       453        31        32        44
       492       492        24        35        37
      1425      1425        88        98        89
       610       610        31        44        45
       716       716        59        50        61
      1398      1398        88        96        94
       645       645        34        46        47
      1102      1102        64        77        87
       970       970        56        67        79
       998       998        57        69        70
      1497      1497         6       104        92
      1467      1467        90       101       100
      1431      1431        89        98       108
      1473      1473         4       102       101
       743       743        42        52        63
       179       179         2        12        21
      1529      1529         9       106       105
       168       168         2        11        20
       470       470        33        34        45
       276       276        10        19        11
       116       116         9         8        17
       310       310        12        21        32
      1540      1540       105       106       107
       697       697        39        49        59
       821       821        56        57        58
       654       654        47        46        56
      1113      1113        65        78        88
       136       136        18         9       107
       733       733        40        52        53
       602       602        42        43        44
       548       548        38        39        49
       445       445        20        32        33
       649       649        45        46        47
       353       353        15        25        24
       704       704        40        50        49
        46        46       100         3       101
        75        75        16         5       102
       104       104         8         7       104
       151       151        18        10        19
       260       260         8        18        29
      1200      1200        85        84        93
         4         4         2         1        98
       579       579        28        41        40
      1258      1258        87        88        97
       678       678        36        48        59
       304       304        11        21        22
       454       454        31        32        45
      1455      1455        89       100        99
       871       871        59        60        70
       465       465        22        34        35
       555       555        27        40        51
        79        79         5         6         8
       672       672        46        47        58
       437       437        30        31        32
        63        63         6         5        14
      1270      1270        79        89       100
      1532      1532        93       106        95
       933       933        63        64        77
       843       843        57        58        59
       723       723        50        51        52
      1239      1239        78        87        86
       327       327        21        22        34
       778       778        64        54        66
       382       382        17        27        26
      1049      1049        61        74        73
      1547      1547        10       107       108
       814       814        46        57        69
       113       113         7         8         9
      1108      1108        86        77        87
      1441      1441         3        99       100
      1088      1088        63        76        86
       409       409        18        29        28
      1462      1462         3       101       100
       215       215         5        15        25
      1240      1240        78        87        88
      1167      1167        80        81        82
      1315      1315        90        91       103
       131       131        10         9       105
        25        25        98         2        99
      1124      1124        67        79        78
      1215      1215        76        86        77
       781       781        44        55        46
       959       959        55        66        67
      1043      1043        71        73        74
      1065      1065        61        75        76
       489       489        23        35        47
       137       137       105         9       106
      1140      1140        68        80        79
      1430      1430        89        98        99
      1243      1243        86        87        96
       977       977        68        67        79
       935       935        65        64        77
        80        80         5         6        16
      1149      1149        81        80        89
      1021      1021        70        71        83
      1068      1068        62        75        74
        37        37        13         3        14
      1129      1129        78        79        88
      1352      1352       105        93       106
      1332      1332        84        92        91
       569       569        41        40        50
       296       296        21        20        31
       596       596        41        42        52
      1528      1528         9       106        95
      1219      1219        76        86        96
       285       285        29        19        30
       997       997        57        69        68
      1535      1535        94       106        95
       675       675        36        48        38
      1003      1003        68        69        81
       682       682        37        48        59
       564       564        39        40        49
      1468      1468        90       101       102
       664       664        35        47        37
       414       414        19        29        30
      1011      1011        60        70        71
      1276      1276        88        89        99
      1277      1277        88        89       100
      1446      1446         3       100        89
       385       385        17        27        40
       493       493        24        35        47
        50        50         3         4       102
      1349      1349        94        93       106
      1169      1169        82        81        90
       477       477        45        34        47
      1146      1146        79        80        89
       641       641        44        45        46
      1106      1106        76        77        86
       486       486        23        35        34
      1393      1393        86        96        97
      1341      1341        84        93       105
      1314      1314        90        91       102
      1141      1141        68        80        81
      1202      1202        92        84        93
      1128      1128        78        79        80
      1098      1098        85        76        86
         9         9        10         1       108
       206       206         5        14        15
       986       986        56        68        81
      1499      1499         6       104       103
      1318      1318        92        91       103
       696       696        39        49        50
      1360      1360        85        94        93
       389       389        28        27        39
       334       334        14        23        24
      1516      1516         7       105         9
       890       890        72        61        75
       870       870        58        60        73
      1004      1004        70        69        71
        69        69        14         5        16
       540       540        26        39        27
       670       670        37        47        58
      1309      1309        83        91        92
       952       952        54        66        55
       490       490        24        35        34
        81        81         5         6        17
      1422      1422         2        98        97
       239       239        17        16        26
      1213      1213        84        85        94
       523       523        47        37        58
      1188      1188        82        83        92
       433       433        20        31        30
       323       323        13        22        23
       436       436        20        31        44
       495       495        34        35        37
       881       881        50        61        75
       980       980        78        67        80
       252       252        16        17        27
      1228      1228        87        86        96
       270       270        28        18        29
       316       316        20        21        22
       100       100         6         7         9
       562       562        28        40        52
        12        12        11         1       108
      1495      1495         6       104         7
       220       220        16        15        23
        21        21        11         2        98
      1500      1500         6       104       105
      1320      1320       102        91       103
       816       816        47        57        56
       163       163         1        11        19
       920       920        62        63        76
       916       916        53        63        62
       975       975        66        67        80
      1503      1503         7       104        93
      1111      1111        65        78        79
       587       587        42        41        52
       728       728        62        51        63
      1064      1064        61        75        74
       714       714        51        50        61
       518       518        35        37        58
       119       119         7         9         8
       689       689        38        49        39
      1317      1317        92        91       102
      1350      1350       104        93       105
       543       543        26        39        49
       771       771        53        54        64
       626       626        53        44        54
      1179      1179        90        82        91
       925       925        53        64        76
       867       867        58        60        59
      1094      1094        75        76        85
        62        62         4         5       103
       502       502        24        36        37
       392       392        18        28        27
       776       776        55        54        66
       375       375        17        26        39
       634       634        33        45        34
       600       600        31        43        52
       529       529        25        38        49
       889       889        72        61        74
       646       646        34        46        55
      1017      1017        69        71        83
      1282      1282        80        90        82
       937       937        54        65        64
      1391      1391        86        96        94
      1126      1126        67        79        88
       189       189         3        13        22
      1077      1077        84        75        85
       412       412        18        29        42
       924       924        53        64        65
      1519      1519         7       105       106
      1554      1554         1       108        98
       880       880        50        61        74
      1158      1158        68        81        82
       796       796        46        56        57
      1322      1322       103        91       104
       244       244         6        17        26
       329       329        23        22        34
       158       158        29        10       107
       800       800        55        56        57
       388       388        26        27        40
       798       798        46        56        67
       480       480        22        35        24
       655       655        47        46        57
         1         1         2         1        10
       401       401        40        28        41
      1272      1272        80        89        98
        97        97        17         6       104
      1397      1397        87        96        97
      1426      1426        88        98        97
       802       802        55        56        67
       967       967        56        67        66
      1047      1047        74        73        83
       643       643        46        45        55
      1152      1152        89        80        90
      1042      1042        71        73        72
        61        61         4         5       102
       862       862        58        59        61
       769       769        44        54        66
      1125      1125        67        79        80
      1562      1562        95       108       107
       702       702        48        49        59
      1544      1544         9       107       108
        68        68        14         5        15
       615       615        32        44        45
      1066      1066        61        75        84
       939       939        54        65        77
       590       590        29        42        43
        36        36        12         3       101
        94        94        16         6       103
      1181      1181        71        83        82
      1252      1252        79        88        89
       721       721        40        51        62
       791       791        46        55        66
       346       346        23        24        25
       203       203         4        14        15
      1084      1084        63        76        64
      1033      1033        60        72        73
        53        53         5         4       102
        89        89         8         6        16
      1353      1353        84        94        85
      1409      1409        95        97        98
       496       496        34        35        47
       979       979        78        67        79
       963       963        56        66        78
      1301      1301       101        90       102
      1413      1413        98        97       108
       621       621        43        44        54
      1436      1436         2        99        89
      1278      1278        98        89        99
       703       703        50        49        59
      1279      1279        98        89       100
       314       314        13        21        32
      1030      1030        59        72        73
       469       469        33        34        35
       363       363        24        25        38
      1244      1244        88        87        96
       508       508        25        36        48
       974       974        66        67        79
      1176      1176        81        82        91
       222       222        16        15        25
      1489      1489         6       103        91
       790       790        46        55        56
       929       929        54        64        76
       989       989        57        68        80
      1374      1374        94        95        96
       335       335        14        23        35
      1172      1172        71        82        90
       811       811        46        57        56
       820       820        47        57        70
      1369      1369        93        94        96
      1183      1183        71        83        92
      1008      1008        57        70        69
         2         2         2         1        11
      1306      1306        82        91       103
       473       473        35        34        45
      1100      1100        64        77        76
       850       850        48        59        61
         7         7        10         1        19
       311       311        12        21        33
       127       127         8         9       105
       460       460        21        33        45
       553       553        27        40        49
      1194      1194        74        84        94
      1373      1373        96        94       106
       520       520        36        37        48
       782       782        44        55        54
       512       512        37        36        38
       152       152        18        10        29
       466       466        22        34        45
       892       892        50        62        51
       595       595        41        42        43
      1491      1491         6       103       104
      1395      1395        87        96        94
       928       928        54        64        65
      1161      1161        69        81        80
      1310      1310        83        91       102
       632       632        32        45        46
      1162      1162        69        81        82
      1045      1045        72        73        74
      1464      1464         4       101        90
       413       413        19        29        28
        92        92         8         6       104
        90        90         8         6        17
       115       115         7         8        18
       577       577        51        40        52
      1099      1099        64        77        65
      1389      1389        86        96        87
      1284      1284        80        90       100
       423       423        19        30        20
       571       571        41        40        52
       651       651        45        46        56
       255       255        26        17        27
       770       770        53        54        55
      1330      1330        83        92        93
       405       405        10        29        30
       745       745        43        52        53
       898       898        51        62        63
       900       900        51        62        76
       344       344        15        24        35
      1015      1015        69        71        81
      1476      1476         5       102        91
      1104      1104        65        77        86
       750       750        43        53        44
       374       374        17        26        38
      1255      1255        79        88        98
      1226      1226        85        86        96
       250       250        16        17        18
       793       793        54        55        66
        39        39        13         3       100
       687       687        49        48        59
      1009      1009        57        70        71
      1445      1445         3       100        80
      1087      1087        63        76        85
        74        74        15         5       103
       701       701        48        49        50
       712       712        49        50        62
      1074      1074        74        75        85
      1553      1553         1       108        97
      1170      1170        71        82        81
      1014      1014        69        71        73
       966       966        67        66        78
       637       637        33        45        55
      1486      1486         5       103        91
       580       580        28        41        42
        67        67         6         5       103
      1337      1337        93        92       104
       134       134        18         9       105
       730       730        40        52        42
      1107      1107        76        77        87
      1492      1492        91       103       102
      1437      1437         2        99        98
       293       293        19        20        31
       879       879        50        61        72
       876       876        72        60        73
       981       981        79        67        80
      1361      1361        85        94        95
       204       204         4        14        23
       838       838        47        58        59
        16        16         1         2        11
       899       899        51        62        75
      1460      1460         3       101         4
       438       438        30        31        43
        45        45        99         3       101
       624       624        45        44        54
       352       352        15        25        16
       527       527        25        38        39
       265       265        10        18        17
      1559      1559        10       108       107
      1522      1522         9       105       106
      1346      1346        92        93       106
       692       692        38        49        50
      1178      1178        83        82        91
       546       546        27        39        49
      1488      1488         5       103       104
       359       359        16        25        36
       960       960        55        66        78
       355       355        15        25        36
      1526      1526         9       106        93
       792       792        54        55        56
      1288      1288        81        90        91
        19        19         1         2        99
       301       301        11        21        12
        13        13        19         1        98
       818       818        47        57        68
        43        43        14         3       101
       159       159        29        10       108
      1551      1551         1       108        10
       926       926        53        64        77
       386       386        26        27        28
      1109      1109        65        78        66
      1477      1477         5       102       101
        20        20        11         2        12
       103       103         8         7         9
      1007      1007        57        70        60
       451       451        21        32        45
       354       354        15        25        26
       262       262         9        18        17
      1264      1264        96        88        98
      1296      1296        91        90       100
       938       938        54        65        66
      1328      1328        83        92        84
       291       291        19        20        21
       994       994        69        68        80
      1041      1041        60        73        83
      1457      1457        90       100        99
       140       140         1        10         9
       913       913        52        63        62
       429       429        20        30        42
      1267      1267        79        89        88
       911       911        51        63        76
       673       673        57        47        58
      1095      1095        75        76        86
      1286      1286        80        90       102
       608       608        31        44        32
      1082      1082        62        76        85
       710       710        49        50        59
       788       788        45        55        66
       943       943        64        65        77
       815       815        46        57        70
       246       246         8        17        16
       336       336        15        23        22
      1119      1119        67        78        87
      1138      1138        67        80        90
      1316      1316        90        91       104
       497       497        36        35        37
       261       261         9        18        10
       144       144         1        10       107
       112       112         6         8        18
       908       908        51        63        53
       282       282        11        19        30
      1485      1485         5       103         6
        47        47         3         4         5
      1466      1466         4       101       102
      1549      1549        95       107       108
      1290      1290        81        90       101
        29        29         4         3        99
       990       990        57        68        81
       256       256         8        18         9
      1266      1266        79        89        80
       224       224        23        15        25
      1340      1340        84        93       104
       597       597        43        42        52
       819       819        47        57        69
      1135      1135        67        80        79
       627       627        53        44        55
      1122      1122        79        78        88
        77        77       102         5       103
      1151      1151        81        80       100
       268       268        17        18        28
       238       238        17        16        25
       416       416        19        29        42
       248       248         8        17        26
      1001      1001        68        69        70
      1358      1358        84        94       106
      1191      1191        74        84        85
       644       644        34        46        45
      1012      1012        69        70        71
       169       169         2        11        21
      1416      1416         1        98        89
       614       614        32        44        43
       585       585        40        41        42
       661       661        34        47        46
       431       431        29        30        42
       842       842        48        58        60
       551       551        27        40        39
        56        56       101         4       102
       684       684        38        48        58
        86        86         7         6        17
      1511      1511        92       104       103
       946       946        66        65        77
      1564      1564        97       108       107
      1211      1211        76        85        94
      1248      1248        78        88        96
       190       190        12        13        14
       868       868        58        60        70
      1254      1254        79        88        97
      1148      1148        79        80       100
       962       962        56        66        67
       400       400        29        28        41
       171       171        12        11        20
       847       847        48        59        50
      1319      1319        92        91       104
      1231      1231        65        87        78
      1136      1136        67        80        81
      1542      1542         9       107        95
       199       199         3        14        15
      1354      1354        84        94        86
       464       464        22        34        33
       175       175        20        11        21
       180       180         3        12        11
       930       930        54        64        77
       380       380        27        26        39
      1298      1298        91        90       102
       866       866        61        59        72
       183       183        11        12        13
       541       541        26        39        38
      1218      1218        76        86        94
      1261      1261        89        88        97
       306       306        11        21        33
      1198      1198        75        84        94
       361       361        24        25        26
       253       253        18        17        26
       612       612        31        44        54
       813       813        46        57        68
       570       570        41        40        51
       102       102         6         7       105
       717       717        59        50        62
       292       292        19        20        30
      1363      1363        85        94       106
       725       725        50        51        63
      1321      1321       102        91       104
       298       298        30        20        31
      1300      1300       100        90       102
       210       210        15        14        23
       652       652        45        46        57
      1343      1343        92        93        94
       274       274         1        19        29
       918       918        53        63        76
      1207      1207        75        85        86
      1289      1289        81        90       100
      1454      1454        89       100        90
      1498      1498         6       104        93
       958       958        55        66        65
       605       605        44        43        52
       885       885        59        61        75
      1076      1076        76        75        85
      1132      1132        80        79        89
       109       109         6         8         7
      1212      1212        84        85        86
       308       308        12        21        20
       550       550        27        40        28
       860       860        50        59        72
      1452      1452        80       100        99
       404       404        10        29        28
       186       186         3        13        12
       807       807        66        56        67
       591       591        29        42        52
      1044      1044        71        73        83
       742       742        42        52        53
       284       284        20        19        30
       572       572        49        40        50
      1324      1324        74        92        84
       364       364        26        25        36
       865       865        60        59        72
       628       628        54        44        55
       315       315        13        21        33
       155       155        19        10        29
       772       772        53        54        65
       138       138       105         9       107
       455       455        33        32        44
       656       656        55        46        56
      1461      1461         3       101        90
       982       982        56        68        57
       858       858        50        59        60
       995       995        69        68        81
       390       390        28        27        40
       290       290        11        20        32
      1229      1229        94        86        96
       162       162         1        11        12
      1479      1479        90       102        91
       983       983        56        68        67
       266       266        10        18        28
       635       635        33        45        44
      1269      1269        79        89        99
      1381      1381        96        95       107
       482       482        22        35        36
       894       894        50        62        63
      1105      1105        65        77        87
       583       583        29        41        42
       910       910        51        63        64
       332       332        14        23        15
      1143      1143        68        80        90
      1201      1201        85        84        94
       391       391        39        27        40
       942       942        64        65        66
       147       147         9        10        19
       834       834        37        58        59
      1038      1038        60        73        71
      1406      1406        88        97        98
       449       449        21        32        33
       511       511        35        36        48
        59        59         4         5        15
      1025      1025        81        71        82
       300       300        31        20        32
       258       258         8        18        17
      1232      1232        65        87        86
       474       474        35        34        46
       884       884        59        61        74
       263       263         9        18        28
        33        33        12         3        14
       559       559        28        40        49
       411       411        18        29        41
       603       603        42        43        52
       874       874        70        60        72
       467       467        22        34        46
       844       844        57        58        60
       200       200         3        14        23
      1185      1185        73        83        91
       441       441        32        31        44
       456       456        33        32        45
       408       408        18        29        19
      1072      1072        74        75        76
        95        95        16         6       104
       231       231         6        16        15
       145       145         1        10       108
       271       271         1        19        10
      1020      1020        70        71        82
      1390      1390        86        96        88
       535       535        36        38        48
       339       339        22        23        24
       457       457        44        32        45
      1501      1501         7       104        91
      1380      1380        96        95       106
       184       184        11        12        21
       683       683        38        48        49
       318       318        20        21        33
       432       432        31        30        42
       421       421        30        29        42
      1217      1217        76        86        87
       434       434        20        31        32
       592       592        30        42        41
      1312      1312        83        91       104
      1480      1480        90       102       101
      1412      1412        96        97       108
       257       257         8        18        10
      1005      1005        70        69        81
       891       891        74        61        75
      1090      1090        64        76        77
       319       319        22        21        32
       625       625        45        44        55
       117       117         9         8        18
      1539      1539        95       106       107
      1469      1469       100       101       102
       984       984        56        68        69
      1085      1085        63        76        75
      1420      1420         2        98        88
       630       630        32        45        34
      1114      1114        66        78        67
       463       463        34        33        45
       379       379        27        26        38
       485       485        23        35        24
       530       530        26        38        36
        87        87         7         6       103
      1372      1372        95        94       106
      1083      1083        62        76        86
      1208      1208        75        85        94
      1292      1292        82        90        91
      1002      1002        68        69        71
       720       720        40        51        52
      1474      1474         4       102       103
       185       185        13        12        21
       141       141         1        10        18
      1216      1216        76        86        85
       181       181         3        12        13
      1203      1203        92        84        94
      1195      1195        75        84        85
      1493      1493        91       103       104
      1459      1459        99       100       101
       245       245         6        17        27
       227       227         5        16        15
      1550      1550       106       107       108
      1078      1078        62        76        63
       417       417        28        29        30
      1121      1121        79        78        87
      1037      1037        73        72        74
       444       444        20        32        31
      1168      1168        80        81        90
      1463      1463         3       101       102
      1251      1251        79        88        87
      1534      1534        93       106       107
       407       407        10        29        42
       601       601        31        43        53
      1379      1379        96        95        97
      1054      1054        72        74        75
      1383      1383        97        95       106
       367       367        16        26        17
       211       211         5        15        14
       639       639        34        45        46
      1304      1304        82        91        92
       715       715        51        50        62
       506       506        25        36        37
       804       804        57        56        66
       917       917        53        63        64
       544       544        27        39        38
      1000      1000        57        69        81
       123       123         7         9       106
      1417      1417         1        98        97
      1308      1308        83        91        90
      1414      1414         1        98         2
      1173      1173        71        82        91
      1080      1080        62        76        75
       107       107         9         7       105
       951       951        78        65        87
      1023      1023        73        71        82
       366       366        36        25        38
        23        23        12         2        98
      1424      1424         2        98       108
       666       666        35        47        57
      1294      1294        82        90       101
      1120      1120        67        78        88
      1394      1394        87        96        88
      1157      1157        68        81        80
       662       662        34        47        57
       458       458        21        33        32
       331       331        34        22        35
       297       297        21        20        32
       809       809        67        56        68
       384       384        17        27        39
       448       448        21        32        31
      1537      1537        94       106       107
      1565      1565        98       108       107
       342       342        15        24        23
       425       425        19        30        31
      1171      1171        71        82        83
       707       707        40        50        61
       837       837        47        58        57
       737       737        41        52        51
       609       609        31        44        43
       760       760        52        53        63
      1056      1056        72        74        92
      1303      1303        82        91        90
      1399      1399        88        96        95
       305       305        11        21        32
       328       328        21        22        35
      1382      1382        96        95       108
       799       799        46        56        68
      1190      1190        74        84        75
       883       883        59        61        72
      1555      1555         1       108       107
      1225      1225        85        86        94
       452       452        31        32        33
      1006      1006        71        69        81
       736       736        41        52        43
       207       207         5        14        23
       803       803        55        56        68
       729       729        40        52        41
         5         5         2         1       108
       836       836        47        58        48
       953       953        54        66        56
       524       524        48        37        58
       657       657        55        46        57
       873       873        59        60        73
       996       996        80        68        81
      1204      1204        93        84        94
       713       713        51        50        59
       856       856        49        59        72
       617       617        32        44        54
       620       620        43        44        53
      1257      1257        87        88        96
       398       398        27        28        41
       568       568        41        40        49
      1063      1063        61        75        62
       340       340        22        23        35
       532       532        26        38        48
      1073      1073        74        75        84
      1116      1116        66        78        87
      1329      1329        83        92        91
       170       170        12        11        19
       557       557        28        40        39
       479       479        22        35        23
      1142      1142        68        80        89
       732       732        40        52        51
       755       755        44        53        52
       108       108       104         7       105
       854       854        49        59        60
       759       759        52        53        54
       177       177         2        12        11
      1366      1366        86        94        96
       693       693        38        49        59
       969       969        56        67        78
       142       142         1        10        19
      1046      1046        72        73        83
      1556      1556        10       108        95
      1423      1423         2        98        99
       259       259         8        18        28
      1189      1189        91        83        92
      1153      1153        89        80       100
      1192      1192        74        84        92
      1071      1071        62        75        85
       383       383        17        27        28
       312       312        13        21        20
      1331      1331        83        92       104
      1428      1428        88        98       108
       633       633        32        45        55
       337       337        15        23        24
       514       514        38        36        48
       872       872        59        60        72
       706       706        40        50        59
       647       647        34        46        56
       174       174        19        11        21
      1504      1504         7       104       103
       167       167         2        11        19
      1086      1086        63        76        77
       120       120         7         9        10
      1123      1123        87        78        88
      1241      1241        78        87        96
       992       992        67        68        80
       901       901        61        62        63
      1055      1055        72        74        84
      1545      1545        10       107        95
       671       671        46        47        57
       471       471        33        34        46
       399       399        29        28        40
       676       676        36        48        49
       132       132        10         9       106
        82        82         5         6       103
       236       236        15        16        25
      1440      1440         3        99        98
       387       387        26        27        39
       537       537        39        38        48
      1079      1079        62        76        64
       101       101         6         7       104
        10        10        11         1        19
       674       674        36        48        37
       515       515        35        37        36
       317       317        20        21        32
        35        35        12         3       100
       415       415        19        29        41
      1053      1053        72        74        73
      1164      1164        71        81        80
       148       148         9        10        29
        38        38        13         3        99
      1165      1165        71        81        82
      1305      1305        82        91       102
      1271      1271        80        89        88
       243       243         6        17        18
       976       976        68        67        78
       623       623        45        44        53
      1028      1028        59        72        60
      1224      1224        85        86        87
      1281      1281        80        90        81
        78        78         5         6         7
      1223      1223        77        86        96
       196       196         3        14         4
       823       823        56        57        69
       205       205         5        14        13
      1517      1517         7       105        93
       173       173        19        11        20
      1210      1210        76        85        86
      1365      1365        86        94        95
       218       218        14        15        24
       694       694        39        49        40
       853       853        49        59        58
      1299      1299       100        90       101
      1103      1103        65        77        76
      1427      1427        88        98        99
       160       160       107        10       108
       877       877        50        61        59
       476       476        45        34        46
       700       700        40        49        59
      1342      1342        84        93       106
       563       563        39        40        41
      1275      1275        88        89        98
      1506      1506        91       104        92
      1444      1444        98        99       100
      1531      1531        93       106        94
      1510      1510        92       104        93
       762       762        54        53        63
       307       307        12        21        13
       192       192        12        13        22
        71        71        14         5       103
       680       680        37        48        49
       309       309        12        21        22
        31        31         4         3       101
       718       718        61        50        62
       461       461        32        33        34
       322       322        13        22        21
       773       773        53        54        66
       761       761        52        53        64
      1242      1242        86        87        88
       330       330        23        22        35
      1368      1368        93        94        95
       830       830        69        57        70
       752       752        43        53        54
      1245      1245        78        88        79
       225       225        24        15        25
        73        73        15         5       102
       249       249         8        17        27
       278       278        10        19        29
       839       839        47        58        60
       751       751        43        53        52
       669       669        37        47        57
       320       320        22        21        33
        66        66         6         5       102
      1348      1348        94        93       105
      1163      1163        69        81        90
       849       849        48        59        60
      1527      1527         9       106        94
       695       695        39        49        48
      1287      1287        81        90        82
         3         3         2         1        19
       164       164         1        11        20
      1180      1180        71        83        73
      1130      1130        78        79        89
      1351      1351       104        93       106
      1513      1513        93       104       103
       961       961        56        66        65
       435       435        20        31        43
       971       971        56        67        80
        26        26         4         3        12
       172       172        12        11        21
       768       768        44        54        65
       688       688        58        48        59
      1150      1150        81        80        90
       522       522        47        37        48
      1050      1050        61        74        75
       281       281        11        19        29
      1214      1214        86        85        94
      1523      1523        93       105       104
       805       805        57        56        67
       178       178         2        12        13
      1259      1259        87        88        98
       422       422        41        29        42
        22        22        11         2        99
       988       988        57        68        69
       833       833        37        58        57
       828       828        68        57        69
       940       940        54        65        78
      1075      1075        76        75        84
       214       214         5        15        24
       338       338        15        23        35
       709       709        49        50        51
      1447      1447         3       100        90
       795       795        46        56        55
       921       921        64        63        76
       402       402        10        29        18
       517       517        35        37        48
       594       594        30        42        52
      1538      1538        95       106       105
      1147      1147        79        80        90
       955       955        54        66        67
       368       368        16        26        25
        44        44        99         3       100
       993       993        67        68        81
       653       653        47        46        55
      1410      1410        95        97       108
        49        49         3         4       101
       789       789        46        55        54
       560       560        28        40        50
       573       573        49        40        51
       832       832        37        58        48
       787       787        45        55        56
         8         8        10         1        98
      1496      1496         6       104        91
       665       665        35        47        46
       859       859        50        59        61
       289       289        11        20        31
      1448      1448         3       100        99
       156       156        19        10       107
       699       699        40        49        50
       161       161         1        11         2
       686       686        49        48        58
       864       864        60        59        61
      1052      1052        61        74        92
        41        41        14         3        99
      1326      1326        74        92        93
        42        42        14         3       100
       565       565        39        40        50
       191       191        12        13        21
       507       507        25        36        38
       202       202         4        14        13
       487       487        23        35        36
      1433      1433        97        98       108
        32        32        12         3        13
       748       748        51        52        63
      1429      1429        89        98        97
      1515      1515       103       104       105
      1508      1508        91       104       103
      1196      1196        75        84        92
       509       509        35        36        37
        60        60         4         5        16
       739       739        41        52        63
       195       195        21        13        22
       395       395        18        28        41
       968       968        56        67        68
      1456      1456        89       100       101
       362       362        24        25        36
       503       503        24        36        38
       536       536        36        38        49
        91        91         8         6       103
        11        11        11         1        98
       897       897        51        62        61
      1377      1377        94        95       107
       631       631        32        45        44
       648       648        34        46        57
       611       611        31        44        53
       129       129         8         9       107
       420       420        30        29        41
      1401      1401        94        96        95
      1274      1274        80        89       100
       598       598        31        43        42
       978       978        68        67        80
       273       273         1        19        20
       588       588        29        42        30
       985       985        56        68        80
       578       578        28        41        29
       501       501        24        36        35
       491       491        24        35        36
      1512      1512        92       104       105
       747       747        51        52        53
      1145      1145        79        80        81
       287       287        11        20        21
       419       419        28        29        42
       618       618        32        44        55
      1451      1451        80       100        90
       607       607        52        43        53
      1339      1339        84        93        94
      1520      1520         9       105        93
      1509      1509        91       104       105
      1470      1470         4       102         5
       106       106         9         7       104
       396       396        27        28        29
       345       345        15        24        36
       237       237        15        16        26
      1396      1396        87        96        95
      1490      1490         6       103       102
       734       734        40        52        63
       622       622        43        44        55
       234       234         6        16        26
       810       810        46        57        47
      1069      1069        62        75        76
       763       763        54        53        64
       143       143         1        10        29
      1478      1478         5       102       103
       794       794        56        55        66
      1376      1376        94        95       106
       283       283        20        19        29
       128       128         8         9       106
      1263      1263        96        88        97
      1209      1209        76        85        84
       973       973        66        67        78
       193       193        14        13        21
       442       442        43        31        44
       498       498        36        35        47
      1370      1370        93        94       106
      1117      1117        66        78        88
      1536      1536        94       106       105
      1205      1205        75        85        76
      1359      1359        85        94        86
       808       808        66        56        68
       521       521        36        37        58
       235       235        15        16        17
       875       875        70        60        73
       275       275         1        19        30
      1199      1199        85        84        92
       232       232         6        16        17
       888       888        62        61        75
      1432      1432        97        98        99
       552       552        27        40        41
       576       576        50        40        52
      1051      1051        61        74        84
       357       357        16        25        24
       406       406        10        29        41
      1227      1227        87        86        94
       726       726        52        51        62
       427       427        20        30        29
       403       403        10        29        19
      1062      1062        84        74        92
       767       767        44        54        64
       744       744        43        52        51
      1235      1235        77        87        78
      1247      1247        78        88        89
        55        55        14         4       102
       302       302        11        21        13
       896       896        50        62        76
       604       604        42        43        53
       581       581        28        41        52
       909       909        51        63        62
        14        14        19         1       108
      1471      1471         4       102        90
       118       118        17         8        18
       247       247         8        17        18
       349       349        25        24        35
      1010      1010        60        70        69
       483       483        22        35        37
       397       397        27        28        40
      1388      1388       107        95       108
      1027      1027        82        71        83
      1487      1487         5       103       102
       135       135        18         9       106
       472       472        33        34        47
       230       230         5        16        26
       690       690        38        49        40
       369       369        16        26        27
       749       749        53        52        63
       642       642        44        45        55
      1187      1187        82        83        91
       764       764        63        53        64
      1355      1355        84        94        93
        93        93        16         6        17
       895       895        50        62        75
        57        57         4         5         6
        52        52         5         4       101
      1026      1026        81        71        83
      1233      1233        65        87        88
       722       722        40        51        63
       376       376        25        26        27
      1408      1408        95        97        96
        27        27         4         3        13
      1375      1375        94        95        97
       944       944        64        65        78
       835       835        37        58        60
       887       887        62        61        74
       326       326        21        22        23
       784       784        44        55        66
       288       288        11        20        30
       949       949        77        65        78
      1039      1039        60        73        72
      1137      1137        67        80        89
      1144      1144        68        80       100
       228       228         5        16        17
       313       313        13        21        22
       439       439        30        31        44
      1291      1291        81        90       102
       547       547        38        39        40
       324       324        13        22        34
      1184      1184        73        83        82
      1036      1036        61        72        74
       786       786        45        55        54
      1438      1438         2        99       100
       513       513        37        36        48
      1403      1403        95        96        97
      1386      1386       106        95       107
      1048      1048        61        74        72
       299       299        30        20        32
      1154      1154        90        80       100
      1364      1364        86        94        93
        18        18         1         2        98
       660       660        34        47        37
       846       846        48        59        49
      1384      1384        97        95       107
       658       658        56        46        57
       157       157        19        10       108
       817       817        47        57        58
      1110      1110        65        78        67
       533       533        26        38        49
      1543      1543         9       107       106
        98        98       103         6       104
      1093      1093        75        76        77
      1334      1334        84        92       104
        72        72        15         5        16
       857       857        50        59        58
      1552      1552         1       108        95
       691       691        38        49        48
       124       124         7         9       107
      1307      1307        82        91       104
      1302      1302        82        91        83
       221       221        16        15        24
        65        65         6         5        16
       125       125         8         9        10
       668       668        37        47        46
      1250      1250        78        88        98
       640       640        34        45        55
       593       593        30        42        43
      1345      1345        92        93       105
       534       534        36        38        39
       783       783        44        55        56
       599       599        31        43        44
       494       494        34        35        36
      1378      1378        94        95       108
       947       947        66        65        78
       554       554        27        40        50
      1415      1415         1        98        88
       882       882        59        61        62
      1236      1236        77        87        86
        83        83         5         6       104
       272       272         1        19        11
      1133      1133        88        79        89
      1186      1186        73        83        92
       241       241         6        17         8
      1034      1034        60        72        74
       855       855        49        59        61
       677       677        36        48        58
       226       226         5        16         6
      1482      1482        91       102       101
      1502      1502         7       104        92
      1253      1253        79        88        96
       724       724        50        51        62
      1013      1013        69        71        70
       586       586        40        41        52
       679       679        37        48        38
       351       351        35        24        36
      1115      1115        66        78        79
      1237      1237        77        87        88
       216       216        14        15        16
      1333      1333        84        92        93
       166       166         2        11        12
      1070      1070        62        75        84
       360       360        16        25        38
      1442      1442        89        99        98
       356       356        15        25        38
      1031      1031        59        72        74
      1091      1091        64        76        85
       341       341        24        23        35
       484       484        22        35        47
       965       965        65        66        78
      1283      1283        80        90        91
       567       567        39        40        52
      1096      1096        77        76        85
       766       766        44        54        55
      1260      1260        89        88        96
      1450      1450        80       100        89
       110       110         6         8         9
       824       824        56        57        70
      1206      1206        75        85        84
         6         6        10         1        11
       538       538        39        38        49
       923       923        53        64        63
      1016      1016        69        71        82
       242       242         6        17        16
       869       869        58        60        72
       198       198         3        14        13
      1434      1434        99        98       108
      1530      1530         9       106       107
       443       443        20        32        21
        28        28         4         3        14
       426       426        19        30        42
       757       757        44        53        63
       126       126         8         9        18
      1347      1347        94        93       104
       526       526        25        38        36
      1024      1024        73        71        83
      1402      1402        94        96        97
       708       708        40        50        62
       153       153        18        10       107
       589       589        29        42        41
      1035      1035        61        72        73
       629       629        32        45        33
       893       893        50        62        61
      1357      1357        84        94        96
       999       999        57        69        71
       481       481        22        35        34
       251       251        16        17        26
      1561      1561        95       108        98
       303       303        11        21        20
       681       681        37        48        58
       269       269        17        18        29
       616       616        32        44        53
      1439      1439         3        99        89
      1484      1484       101       102       103
        99        99         6         7         8
       525       525        25        38        26
       114       114         7         8        17
      1131      1131        80        79        88
      1435      1435         2        99         3
      1182      1182        71        83        91
       956       956        54        66        78
       698       698        40        49        48
      1419      1419         1        98       108
       575       575        50        40        51
       105       105         8         7       105
       201       201         4        14         5
      1019      1019        70        71        81
        64        64         6         5        15
      1032      1032        60        72        61
       777       777        64        54        65
       650       650        45        46        55
       922       922        53        64        54
      1222      1222        77        86        94
      1541      1541         9       107        10
       393       393        18        28        29
      1481      1481        90       102       103
      1285      1285        80        90       101
