LAMMPS data file.

    228 atoms
   1318 bonds
   3230 angles
      0 dihedrals
      0 impropers
      1 atom types
   1318 bond types
   3230 angle types
      0 dihedral types
      0 improper types
  -8.280990   8.280990 xlo xhi
  -8.281631   8.281631 ylo yhi
  -0.100000   0.100000 zlo zhi
0.0 0.0 0.0 xy xz yz

Masses # ['atom_id', 'mass']

1 1000000.0

Atoms # ['atomID', 'moleculeID', 'atomType', 'charge', 'x', 'y', 'z']

      1      1      1   0.000000   4.430460  -5.909010   0.000000
      2      1      1   0.000000  -0.464789   0.743069   0.000000
      3      1      1   0.000000   4.142210   3.440010   0.000000
      4      1      1   0.000000   5.707200  -0.116379   0.000000
      5      1      1   0.000000   4.521310  -4.414070   0.000000
      6      1      1   0.000000   6.789060  -0.944397   0.000000
      7      1      1   0.000000   1.442850   2.077580   0.000000
      8      1      1   0.000000  -1.273510   6.186930   0.000000
      9      1      1   0.000000  -7.875190   4.534700   0.000000
     10      1      1   0.000000  -5.206270  -5.935250   0.000000
     11      1      1   0.000000  -7.210020   6.569870   0.000000
     12      1      1   0.000000   0.727460   4.448100   0.000000
     13      1      1   0.000000  -7.824770  -8.109760   0.000000
     14      1      1   0.000000   2.009700   4.901790   0.000000
     15      1      1   0.000000   5.480450   3.941720   0.000000
     16      1      1   0.000000  -3.847920   4.956800   0.000000
     17      1      1   0.000000   5.788350   7.798940   0.000000
     18      1      1   0.000000   7.891030  -5.540240   0.000000
     19      1      1   0.000000  -7.301270  -5.909570   0.000000
     20      1      1   0.000000  -1.719430   2.943930   0.000000
     21      1      1   0.000000  -8.217120  -2.446420   0.000000
     22      1      1   0.000000   5.716280  -6.586700   0.000000
     23      1      1   0.000000   5.934090  -4.325910   0.000000
     24      1      1   0.000000  -2.538490  -7.200860   0.000000
     25      1      1   0.000000   7.354610   7.712600   0.000000
     26      1      1   0.000000   2.174770  -4.923800   0.000000
     27      1      1   0.000000   5.439920   6.465150   0.000000
     28      1      1   0.000000  -0.779790  -4.984260   0.000000
     29      1      1   0.000000  -5.381800   3.030390   0.000000
     30      1      1   0.000000   7.991180  -0.225588   0.000000
     31      1      1   0.000000  -6.022270   1.756880   0.000000
     32      1      1   0.000000   1.892490  -1.504190   0.000000
     33      1      1   0.000000  -2.287770   1.558590   0.000000
     34      1      1   0.000000  -2.858850   3.891390   0.000000
     35      1      1   0.000000  -3.318640  -1.029060   0.000000
     36      1      1   0.000000  -3.706460   1.415300   0.000000
     37      1      1   0.000000   7.864620   3.503450   0.000000
     38      1      1   0.000000   6.714890   5.761800   0.000000
     39      1      1   0.000000  -1.649230  -6.095370   0.000000
     40      1      1   0.000000  -0.586300   3.983460   0.000000
     41      1      1   0.000000   6.267200  -3.039920   0.000000
     42      1      1   0.000000   0.155272   6.604470   0.000000
     43      1      1   0.000000  -8.273730  -6.860860   0.000000
     44      1      1   0.000000   1.845140   3.447200   0.000000
     45      1      1   0.000000  -6.160970  -4.821410   0.000000
     46      1      1   0.000000  -1.945730  -0.683383   0.000000
     47      1      1   0.000000   0.647660  -5.339020   0.000000
     48      1      1   0.000000   2.223950   7.935570   0.000000
     49      1      1   0.000000  -7.521910  -4.510910   0.000000
     50      1      1   0.000000   2.862980  -2.648860   0.000000
     51      1      1   0.000000  -2.439710   5.301250   0.000000
     52      1      1   0.000000  -6.498220   4.057780   0.000000
     53      1      1   0.000000   1.802270   0.650551   0.000000
     54      1      1   0.000000   7.158430   2.283740   0.000000
     55      1      1   0.000000  -3.989380  -6.816800   0.000000
     56      1      1   0.000000  -7.437420  -1.242010   0.000000
     57      1      1   0.000000   1.763650  -6.222760   0.000000
     58      1      1   0.000000   5.787580   2.022410   0.000000
     59      1      1   0.000000  -4.044550  -5.329190   0.000000
     60      1      1   0.000000   3.909830   1.326030   0.000000
     61      1      1   0.000000  -4.692300  -8.031270   0.000000
     62      1      1   0.000000   5.423740   5.253440   0.000000
     63      1      1   0.000000   0.153058   1.927510   0.000000
     64      1      1   0.000000  -2.951650  -5.889010   0.000000
     65      1      1   0.000000  -0.103627  -2.784540   0.000000
     66      1      1   0.000000  -3.388600  -3.388260   0.000000
     67      1      1   0.000000   4.264880   0.113549   0.000000
     68      1      1   0.000000   5.140790  -2.263270   0.000000
     69      1      1   0.000000  -0.206331   5.345460   0.000000
     70      1      1   0.000000  -1.098390  -3.469970   0.000000
     71      1      1   0.000000  -2.219520  -2.937020   0.000000
     72      1      1   0.000000   4.435230  -8.155960   0.000000
     73      1      1   0.000000   3.434260  -5.030590   0.000000
     74      1      1   0.000000  -4.996100   0.903483   0.000000
     75      1      1   0.000000  -1.617060  -8.240800   0.000000
     76      1      1   0.000000   3.186690  -3.930150   0.000000
     77      1      1   0.000000   3.076340  -6.139960   0.000000
     78      1      1   0.000000   1.957220  -3.633510   0.000000
     79      1      1   0.000000   3.309870   5.604010   0.000000
     80      1      1   0.000000  -3.562180  -8.142390   0.000000
     81      1      1   0.000000  -7.212500  -0.022217   0.000000
     82      1      1   0.000000   7.887760   6.457660   0.000000
     83      1      1   0.000000   3.126660   4.339320   0.000000
     84      1      1   0.000000   1.046010   5.788430   0.000000
     85      1      1   0.000000  -4.080820   3.622540   0.000000
     86      1      1   0.000000  -4.045800   0.141680   0.000000
     87      1      1   0.000000   4.513170  -1.041900   0.000000
     88      1      1   0.000000   3.065530   0.477014   0.000000
     89      1      1   0.000000   4.144630  -3.171580   0.000000
     90      1      1   0.000000   0.092735  -3.974220   0.000000
     91      1      1   0.000000   0.861091  -2.067030   0.000000
     92      1      1   0.000000   6.534350  -5.528950   0.000000
     93      1      1   0.000000  -5.186110  -0.297461   0.000000
     94      1      1   0.000000   4.287300   4.703050   0.000000
     95      1      1   0.000000   7.044100  -6.595590   0.000000
     96      1      1   0.000000  -7.366770   2.011590   0.000000
     97      1      1   0.000000  -6.226870  -6.795600   0.000000
     98      1      1   0.000000  -6.175860   0.482629   0.000000
     99      1      1   0.000000   0.156965  -7.562800   0.000000
    100      1      1   0.000000  -2.892540   0.303765   0.000000
    101      1      1   0.000000  -3.120250   2.592840   0.000000
    102      1      1   0.000000  -5.143870   4.296680   0.000000
    103      1      1   0.000000  -5.346580  -3.659320   0.000000
    104      1      1   0.000000   1.417750  -7.484550   0.000000
    105      1      1   0.000000  -1.225510  -2.227760   0.000000
    106      1      1   0.000000  -0.370883  -6.286620   0.000000
    107      1      1   0.000000  -1.123840  -7.213800   0.000000
    108      1      1   0.000000   3.181300  -1.396870   0.000000
    109      1      1   0.000000  -3.613650   6.278490   0.000000
    110      1      1   0.000000  -3.166810  -4.580830   0.000000
    111      1      1   0.000000   3.676320  -7.155650   0.000000
    112      1      1   0.000000   0.561719   3.152450   0.000000
    113      1      1   0.000000   3.970220   6.621350   0.000000
    114      1      1   0.000000  -1.981840   7.217610   0.000000
    115      1      1   0.000000   6.409960   4.624710   0.000000
    116      1      1   0.000000  -5.028510  -4.756860   0.000000
    117      1      1   0.000000   7.131640  -2.124670   0.000000
    118      1      1   0.000000  -6.241280  -2.862540   0.000000
    119      1      1   0.000000   6.440940  -7.726400   0.000000
    120      1      1   0.000000   2.839440   6.798140   0.000000
    121      1      1   0.000000  -3.115940   7.256200   0.000000
    122      1      1   0.000000   3.424950   2.422800   0.000000
    123      1      1   0.000000   4.481390   2.350320   0.000000
    124      1      1   0.000000   3.508720   7.673700   0.000000
    125      1      1   0.000000   7.439190  -7.681190   0.000000
    126      1      1   0.000000   7.921660  -1.376650   0.000000
    127      1      1   0.000000  -7.459130   3.219540   0.000000
    128      1      1   0.000000   1.105990  -4.252020   0.000000
    129      1      1   0.000000  -1.709070   0.562117   0.000000
    130      1      1   0.000000  -5.947440   6.882630   0.000000
    131      1      1   0.000000  -4.794670   6.689310   0.000000
    132      1      1   0.000000  -2.115140  -4.969550   0.000000
    133      1      1   0.000000   0.151061   7.830700   0.000000
    134      1      1   0.000000  -3.269870  -2.339320   0.000000
    135      1      1   0.000000  -4.266590  -4.124260   0.000000
    136      1      1   0.000000  -5.283760  -2.487880   0.000000
    137      1      1   0.000000  -1.095020   1.799890   0.000000
    138      1      1   0.000000  -7.979540   0.877179   0.000000
    139      1      1   0.000000  -6.231810  -0.707112   0.000000
    140      1      1   0.000000   0.655233  -0.001839   0.000000
    141      1      1   0.000000  -5.324920  -1.402750   0.000000
    142      1      1   0.000000  -6.907990   7.633130   0.000000
    143      1      1   0.000000  -4.081140   7.417340   0.000000
    144      1      1   0.000000  -1.771690   4.228850   0.000000
    145      1      1   0.000000  -4.283830   2.587930   0.000000
    146      1      1   0.000000   7.561840   0.965183   0.000000
    147      1      1   0.000000   6.692750   3.640620   0.000000
    148      1      1   0.000000  -4.395910  -3.004850   0.000000
    149      1      1   0.000000   7.419000   4.629060   0.000000
    150      1      1   0.000000  -0.803382   7.381210   0.000000
    151      1      1   0.000000  -0.545522   2.747550   0.000000
    152      1      1   0.000000  -5.873000   7.947560   0.000000
    153      1      1   0.000000   2.688810   1.575480   0.000000
    154      1      1   0.000000  -0.164862  -1.677320   0.000000
    155      1      1   0.000000  -7.344120  -3.329580   0.000000
    156      1      1   0.000000   6.561640   1.123110   0.000000
    157      1      1   0.000000  -0.166305  -0.560507   0.000000
    158      1      1   0.000000   2.230370   6.040370   0.000000
    159      1      1   0.000000   2.469320  -0.409515   0.000000
    160      1      1   0.000000   2.546690  -7.294810   0.000000
    161      1      1   0.000000   1.619600   6.813550   0.000000
    162      1      1   0.000000  -4.311070  -1.958880   0.000000
    163      1      1   0.000000  -6.274010  -1.823340   0.000000
    164      1      1   0.000000   4.606770   7.372370   0.000000
    165      1      1   0.000000  -2.372480  -1.786060   0.000000
    166      1      1   0.000000  -6.916920   5.290510   0.000000
    167      1      1   0.000000   5.400790  -5.360070   0.000000
    168      1      1   0.000000  -6.638670  -7.898600   0.000000
    169      1      1   0.000000   4.028550  -2.095000   0.000000
    170      1      1   0.000000   0.674831  -6.562980   0.000000
    171      1      1   0.000000  -6.513770   2.813910   0.000000
    172      1      1   0.000000   3.456360  -0.545006   0.000000
    173      1      1   0.000000  -4.387590  -0.910339   0.000000
    174      1      1   0.000000  -7.185920  -7.101980   0.000000
    175      1      1   0.000000  -5.130560  -7.073080   0.000000
    176      1      1   0.000000   7.852460   5.362800   0.000000
    177      1      1   0.000000   7.435510  -3.062650   0.000000
    178      1      1   0.000000  -8.202630   2.523720   0.000000
    179      1      1   0.000000   5.408860  -7.658870   0.000000
    180      1      1   0.000000   6.634980   6.889320   0.000000
    181      1      1   0.000000   5.193040   2.908920   0.000000
    182      1      1   0.000000  -0.614320  -8.215350   0.000000
    183      1      1   0.000000   4.864020   0.794888   0.000000
    184      1      1   0.000000  -7.146320  -2.353780   0.000000
    185      1      1   0.000000  -6.312660  -5.805690   0.000000
    186      1      1   0.000000   6.924490   0.202695   0.000000
    187      1      1   0.000000   4.642860  -7.131430   0.000000
    188      1      1   0.000000   7.048400  -4.684070   0.000000
    189      1      1   0.000000  -0.948071  -1.140570   0.000000
    190      1      1   0.000000   3.246050  -8.034170   0.000000
    191      1      1   0.000000   4.428140   5.721720   0.000000
    192      1      1   0.000000  -2.515760   6.378310   0.000000
    193      1      1   0.000000   2.515180   2.514000   0.000000
    194      1      1   0.000000  -5.117760   7.585200   0.000000
    195      1      1   0.000000   8.220360  -3.627070   0.000000
    196      1      1   0.000000  -5.039680   5.171590   0.000000
    197      1      1   0.000000   0.983338   8.271820   0.000000
    198      1      1   0.000000  -7.009750   1.049760   0.000000
    199      1      1   0.000000   7.176550  -3.876090   0.000000
    200      1      1   0.000000   0.701107  -1.019830   0.000000
    201      1      1   0.000000   7.900960  -4.376730   0.000000
    202      1      1   0.000000   5.577510  -1.286990   0.000000
    203      1      1   0.000000   0.909191  -3.212630   0.000000
    204      1      1   0.000000  -5.918300   5.099180   0.000000
    205      1      1   0.000000   5.687460   0.975595   0.000000
    206      1      1   0.000000  -6.490250  -3.778160   0.000000
    207      1      1   0.000000   0.747846   1.008670   0.000000
    208      1      1   0.000000   5.169700  -3.400620   0.000000
    209      1      1   0.000000  -4.488050   5.837190   0.000000
    210      1      1   0.000000  -2.582850   8.130630   0.000000
    211      1      1   0.000000  -5.378600   5.944950   0.000000
    212      1      1   0.000000   8.131820   1.702640   0.000000
    213      1      1   0.000000  -6.261070   5.936780   0.000000
    214      1      1   0.000000  -7.906360   5.726830   0.000000
    215      1      1   0.000000  -8.061720   7.386360   0.000000
    216      1      1   0.000000  -4.843180   1.906390   0.000000
    217      1      1   0.000000   6.153000  -1.921450   0.000000
    218      1      1   0.000000  -5.653530  -7.720570   0.000000
    219      1      1   0.000000   1.426550  -0.426318   0.000000
    220      1      1   0.000000  -2.353590  -3.937480   0.000000
    221      1      1   0.000000  -1.564050  -4.296590   0.000000
    222      1      1   0.000000   1.039350   7.460430   0.000000
    223      1      1   0.000000   1.698210  -2.662190   0.000000
    224      1      1   0.000000   6.157440   2.980570   0.000000
    225      1      1   0.000000  -1.221330   5.014420   0.000000
    226      1      1   0.000000   2.967540   3.296600   0.000000
    227      1      1   0.000000   4.891950   1.592160   0.000000
    228      1      1   0.000000  -1.056330  -0.188932   0.000000

Bond Coeffs # ['bondID', 'bondCoeff', 'd']

      1   0.667705   1.497698
      2   0.687977   1.453478
      3   0.752895   1.328170
      4   0.727934   1.373673
      5   0.686341   1.456996
      6   0.896957   1.114843
      7   0.805984   1.240736
      8   0.748564   1.335903
      9   0.795269   1.257370
     10   0.812695   1.230472
     11   0.743406   1.345116
     12   0.747780   1.337312
     13   0.805513   1.241381
     14   0.905899   1.103878
     15   0.699659   1.429195
     16   0.737174   1.356503
     17   0.786585   1.271346
     18   0.803431   1.244660
     19   0.876244   1.141257
     20   0.849284   1.177412
     21   0.844977   1.183392
     22   0.733996   1.362364
     23   0.684645   1.460532
     24   0.805455   1.241515
     25   0.794606   1.258413
     26   0.849077   1.177773
     27   0.915638   1.092152
     28   0.667705   1.497698
     29   0.706409   1.415528
     30   0.800157   1.249710
     31   0.704373   1.419644
     32   0.770229   1.298333
     33   0.774179   1.291666
     34   0.831173   1.203117
     35   0.733996   1.362364
     36   0.713933   1.400635
     37   0.813688   1.228986
     38   0.824851   1.212281
     39   0.865773   1.155059
     40   0.794205   1.259057
     41   0.857738   1.165850
     42   0.700545   1.427479
     43   0.679544   1.471596
     44   0.770075   1.298493
     45   0.719480   1.389870
     46   0.744388   1.343325
     47   0.863721   1.157737
     48   0.784315   1.274990
     49   0.671764   1.488542
     50   0.682858   1.464395
     51   0.735801   1.359023
     52   0.799605   1.250613
     53   0.779137   1.283481
     54   0.795562   1.256905
     55   0.852042   1.173671
     56   0.758209   1.318878
     57   0.686201   1.457223
     58   0.724960   1.379403
     59   0.786558   1.271296
     60   0.819337   1.220463
     61   0.850672   1.175524
     62   0.838564   1.192538
     63   0.681653   1.467001
     64   0.665471   1.502649
     65   0.763148   1.310306
     66   0.749128   1.334851
     67   0.839142   1.191722
     68   0.876944   1.140346
     69   0.897654   1.113950
     70   0.680930   1.468492
     71   0.768753   1.300741
     72   0.904718   1.105325
     73   0.761918   1.312505
     74   0.876590   1.140750
     75   0.914539   1.093438
     76   0.847542   1.179851
     77   0.735180   1.360138
     78   0.717582   1.393505
     79   0.666503   1.500336
     80   0.772138   1.295075
     81   0.725875   1.377664
     82   0.765593   1.306208
     83   0.637484   1.568603
     84   0.753503   1.327146
     85   0.731523   1.366941
     86   0.812832   1.230243
     87   0.830001   1.204750
     88   0.838069   1.193210
     89   0.914821   1.093132
     90   0.735180   1.360138
     91   0.683135   1.463869
     92   0.676710   1.477686
     93   0.799588   1.250589
     94   0.763624   1.309515
     95   0.862255   1.159767
     96   0.699659   1.429195
     97   0.761665   1.312945
     98   0.706511   1.415355
     99   0.866931   1.153457
    100   0.800515   1.249133
    101   0.932805   1.072045
    102   0.850597   1.175638
    103   0.687873   1.453739
    104   0.689746   1.449725
    105   0.738332   1.354434
    106   0.687541   1.454388
    107   0.745007   1.342292
    108   0.825744   1.210961
    109   0.918676   1.088510
    110   0.637459   1.568638
    111   0.725412   1.378550
    112   0.674008   1.483590
    113   0.815634   1.226033
    114   0.795997   1.256222
    115   0.855601   1.168776
    116   0.804722   1.242655
    117   0.704884   1.418601
    118   0.725141   1.379065
    119   0.648211   1.542664
    120   0.737024   1.356727
    121   0.739005   1.353165
    122   0.832435   1.201271
    123   0.859450   1.163552
    124   0.704884   1.418601
    125   0.735072   1.360379
    126   0.634427   1.576190
    127   0.706246   1.415956
    128   0.718054   1.392618
    129   0.834759   1.197976
    130   1.005928   0.994053
    131   0.667834   1.497390
    132   0.674799   1.481877
    133   0.650295   1.537728
    134   0.692410   1.444147
    135   0.767254   1.303348
    136   0.777632   1.285982
    137   0.840136   1.190221
    138   0.696978   1.434760
    139   0.796669   1.255159
    140   0.869243   1.150437
    141   0.805257   1.241814
    142   0.910320   1.098478
    143   0.930355   1.074800
    144   0.842335   1.187196
    145   0.687977   1.453478
    146   0.747829   1.337188
    147   0.753053   1.327850
    148   0.740427   1.350573
    149   0.789557   1.266552
    150   0.896575   1.115373
    151   0.830714   1.203728
    152   0.706409   1.415528
    153   0.752779   1.328432
    154   0.743787   1.344477
    155   0.859426   1.163570
    156   0.854318   1.170455
    157   0.833197   1.200189
    158   0.704831   1.418764
    159   0.666247   1.500861
    160   0.727087   1.375373
    161   0.719712   1.389427
    162   0.718977   1.390834
    163   0.706818   1.414709
    164   0.811325   1.232572
    165   0.637484   1.568604
    166   0.637459   1.568638
    167   0.733415   1.363497
    168   0.852872   1.172527
    169   0.914516   1.093461
    170   0.839449   1.191195
    171   0.631857   1.582553
    172   0.733969   1.362467
    173   0.791088   1.264009
    174   0.705099   1.418211
    175   0.764249   1.308501
    176   0.792135   1.262370
    177   0.725412   1.378550
    178   0.686735   1.456108
    179   0.825216   1.211818
    180   0.676564   1.477977
    181   0.811845   1.231741
    182   0.788540   1.268105
    183   0.796444   1.255542
    184   0.708787   1.410848
    185   0.679828   1.470873
    186   0.749208   1.334721
    187   0.732585   1.365045
    188   0.748783   1.335431
    189   0.958712   1.043050
    190   0.701512   1.425493
    191   0.659088   1.517209
    192   0.699563   1.429402
    193   0.776141   1.288449
    194   0.844719   1.183769
    195   0.867639   1.152484
    196   0.802319   1.246390
    197   0.713933   1.400635
    198   0.656851   1.522387
    199   0.728059   1.373439
    200   0.867198   1.153159
    201   0.799188   1.251272
    202   0.790017   1.265807
    203   0.869935   1.149458
    204   0.701512   1.425493
    205   0.749239   1.334658
    206   0.730727   1.368414
    207   0.779152   1.283474
    208   0.857845   1.165712
    209   0.823318   1.214551
    210   0.841329   1.188531
    211   0.666343   1.500707
    212   0.851052   1.174978
    213   0.773188   1.293270
    214   0.808174   1.237355
    215   0.777525   1.286079
    216   0.851597   1.174269
    217   0.851676   1.174184
    218   0.667834   1.497390
    219   0.701265   1.425908
    220   0.717900   1.392958
    221   0.753194   1.327665
    222   0.867808   1.152325
    223   0.821708   1.216913
    224   0.687873   1.453739
    225   0.674799   1.481877
    226   0.679891   1.470844
    227   0.799192   1.251196
    228   0.754953   1.324599
    229   0.878431   1.138330
    230   0.706295   1.415759
    231   0.725588   1.378185
    232   0.714661   1.399280
    233   0.762692   1.311167
    234   0.735298   1.359957
    235   0.825256   1.211721
    236   0.929724   1.075523
    237   0.701265   1.425908
    238   0.720692   1.387490
    239   0.758709   1.318051
    240   0.725858   1.377671
    241   0.760237   1.315387
    242   0.765076   1.307064
    243   0.807546   1.238266
    244   0.758209   1.318878
    245   0.709528   1.409396
    246   0.787135   1.270361
    247   0.847505   1.179871
    248   0.826034   1.210609
    249   0.911118   1.097555
    250   0.686735   1.456108
    251   0.720620   1.387623
    252   0.733239   1.363762
    253   0.849435   1.177266
    254   0.749766   1.333743
    255   0.829476   1.205515
    256   0.884698   1.130348
    257   0.704831   1.418764
    258   0.708787   1.410848
    259   0.758298   1.318667
    260   0.773608   1.292574
    261   0.809274   1.235686
    262   0.820741   1.218418
    263   0.717582   1.393505
    264   0.650295   1.537728
    265   0.707221   1.414009
    266   0.705584   1.417224
    267   0.826044   1.210523
    268   0.808690   1.236583
    269   0.825870   1.210843
    270   0.752779   1.328432
    271   0.730858   1.368205
    272   0.794304   1.258944
    273   0.855725   1.168531
    274   0.809469   1.235353
    275   0.865564   1.155253
    276   0.889470   1.124285
    277   0.671764   1.488542
    278   0.763423   1.309909
    279   0.827772   1.208029
    280   0.815518   1.226237
    281   0.810461   1.233832
    282   0.812621   1.230554
    283   0.753503   1.327146
    284   0.725141   1.379065
    285   0.735072   1.360379
    286   0.786052   1.272115
    287   0.847006   1.180611
    288   0.897443   1.114213
    289   0.700545   1.427479
    290   0.666503   1.500336
    291   0.683135   1.463869
    292   0.759356   1.316832
    293   0.870442   1.148833
    294   0.882986   1.132458
    295   0.681653   1.467001
    296   0.634427   1.576190
    297   0.716340   1.395911
    298   0.704697   1.419044
    299   0.881551   1.134298
    300   1.004130   0.995900
    301   0.914106   1.093982
    302   0.706295   1.415759
    303   0.731081   1.367812
    304   0.788792   1.267785
    305   0.845762   1.182376
    306   0.911177   1.097426
    307   0.982661   1.017602
    308   0.631857   1.582553
    309   0.679828   1.470873
    310   0.702463   1.423527
    311   0.678749   1.473302
    312   0.718803   1.391178
    313   0.847694   1.179676
    314   0.816841   1.224262
    315   0.714877   1.398833
    316   0.773228   1.293280
    317   0.762626   1.311186
    318   0.729190   1.371401
    319   0.784668   1.274428
    320   0.846034   1.181930
    321   0.777945   1.285372
    322   0.783460   1.276336
    323   0.648211   1.542664
    324   0.706246   1.415956
    325   0.716340   1.395911
    326   0.837096   1.194634
    327   0.829558   1.205445
    328   0.871797   1.146986
    329   0.790243   1.265403
    330   0.666343   1.500707
    331   0.756698   1.321549
    332   0.747436   1.337885
    333   0.722434   1.384147
    334   0.774111   1.291823
    335   0.774874   1.290471
    336   0.858433   1.164846
    337   0.682858   1.464395
    338   0.689746   1.449725
    339   0.679891   1.470844
    340   0.791487   1.263445
    341   0.926163   1.079742
    342   0.798882   1.251687
    343   0.686201   1.457223
    344   0.659088   1.517209
    345   0.727101   1.375259
    346   0.784202   1.275144
    347   0.768121   1.301896
    348   0.803891   1.243967
    349   0.838943   1.191982
    350   0.679544   1.471596
    351   0.784193   1.275124
    352   0.757786   1.319586
    353   0.780507   1.281190
    354   0.798417   1.252476
    355   0.897960   1.113580
    356   0.876793   1.140532
    357   0.709528   1.409396
    358   0.716531   1.395537
    359   0.725230   1.378888
    360   0.766236   1.305075
    361   0.816511   1.224662
    362   0.882070   1.133651
    363   0.819878   1.219653
    364   0.665471   1.502649
    365   0.666247   1.500861
    366   0.671772   1.488633
    367   0.712643   1.403223
    368   0.718373   1.392005
    369   0.718022   1.392727
    370   0.854944   1.169603
    371   0.696978   1.434760
    372   0.656851   1.522387
    373   0.806234   1.240357
    374   0.826118   1.210412
    375   0.758146   1.318943
    376   0.768863   1.300564
    377   0.870142   1.149248
    378   0.733969   1.362467
    379   0.702463   1.423527
    380   0.760234   1.315299
    381   0.764337   1.308343
    382   0.753248   1.327570
    383   0.876586   1.140735
    384   0.716531   1.395537
    385   0.842771   1.186553
    386   0.936833   1.067417
    387   0.950964   1.051592
    388   0.973654   1.027067
    389   1.006376   0.993614
    390   0.763148   1.310306
    391   0.671772   1.488633
    392   0.814339   1.227937
    393   0.866934   1.153460
    394   0.878464   1.138305
    395   0.816194   1.225217
    396   0.791526   1.263397
    397   0.835153   1.197360
    398   0.833914   1.199172
    399   0.852541   1.172967
    400   0.802370   1.246240
    401   0.915663   1.092058
    402   0.982718   1.017539
    403   0.712643   1.403223
    404   0.880565   1.135570
    405   0.786660   1.271208
    406   0.949072   1.053660
    407   0.963403   1.037995
    408   0.989856   1.010197
    409   0.761665   1.312945
    410   0.825216   1.211818
    411   0.720620   1.387623
    412   0.791917   1.262705
    413   0.854975   1.169586
    414   0.908857   1.100230
    415   0.748564   1.335903
    416   0.770075   1.298493
    417   0.774410   1.291310
    418   0.797032   1.254586
    419   0.928273   1.077256
    420   0.913617   1.094550
    421   0.727087   1.375373
    422   0.758298   1.318667
    423   0.718373   1.392005
    424   0.814339   1.227937
    425   0.754298   1.325756
    426   0.804461   1.243043
    427   0.827756   1.208043
    428   0.829360   1.205776
    429   0.831718   1.202290
    430   0.798403   1.252448
    431   0.901796   1.108912
    432   0.909405   1.099573
    433   0.797954   1.253142
    434   0.824406   1.213019
    435   0.947312   1.055638
    436   0.872826   1.145671
    437   0.927746   1.077811
    438   0.853435   1.171703
    439   0.684645   1.460532
    440   0.791526   1.263397
    441   0.846159   1.181825
    442   0.797905   1.253215
    443   0.958944   1.042784
    444   1.102153   0.907299
    445   0.730858   1.368205
    446   0.728235   1.373190
    447   0.741770   1.348096
    448   0.888922   1.124897
    449   0.935012   1.069508
    450   0.878968   1.137717
    451   0.935963   1.068368
    452   0.735801   1.359023
    453   0.772138   1.295075
    454   0.707221   1.414009
    455   0.763423   1.309909
    456   0.752760   1.328375
    457   0.936616   1.067619
    458   0.827756   1.208043
    459   0.805541   1.241357
    460   0.773081   1.293463
    461   0.800853   1.248697
    462   1.054005   0.948757
    463   0.797954   1.253142
    464   0.805541   1.241357
    465   0.818910   1.221108
    466   0.827440   1.208503
    467   0.861279   1.161080
    468   0.990689   1.009403
    469   0.674008   1.483590
    470   0.796416   1.255613
    471   0.846158   1.181775
    472   0.953255   1.049053
    473   0.914716   1.093186
    474   0.956631   1.045357
    475   0.836494   1.195400
    476   0.752895   1.328170
    477   0.800157   1.249710
    478   0.791088   1.264009
    479   0.886588   1.127945
    480   0.857879   1.165679
    481   0.749239   1.334658
    482   0.720692   1.387490
    483   0.821028   1.217955
    484   0.822462   1.215882
    485   0.798315   1.252578
    486   0.985728   1.014498
    487   0.719712   1.389427
    488   0.877741   1.139296
    489   0.859469   1.163514
    490   0.803719   1.244198
    491   0.996888   1.003063
    492   1.015523   0.984658
    493   0.704373   1.419644
    494   0.705099   1.418211
    495   0.756698   1.321549
    496   0.886588   1.127945
    497   0.790622   1.264750
    498   0.818367   1.221915
    499   0.727934   1.373673
    500   0.760234   1.315299
    501   0.857879   1.165679
    502   0.847702   1.179662
    503   0.787086   1.270515
    504   0.764249   1.308501
    505   0.747436   1.337885
    506   0.790622   1.264750
    507   0.950356   1.052210
    508   0.885398   1.129382
    509   0.994773   1.005261
    510   0.676710   1.477686
    511   0.782557   1.277891
    512   0.752243   1.329323
    513   0.824484   1.212865
    514   0.779154   1.283453
    515   0.858805   1.164358
    516   0.889270   1.124448
    517   0.718977   1.390834
    518   0.718022   1.392727
    519   0.880565   1.135570
    520   0.801782   1.247234
    521   0.885129   1.129778
    522   0.978965   1.021434
    523   0.728059   1.373440
    524   0.806234   1.240357
    525   0.867237   1.153036
    526   0.845970   1.182059
    527   0.835968   1.196175
    528   0.916625   1.090982
    529   0.680930   1.468492
    530   0.733415   1.363497
    531   0.733239   1.363762
    532   0.912903   1.095429
    533   0.943325   1.060056
    534   0.898877   1.112492
    535   0.737174   1.356503
    536   0.799588   1.250589
    537   0.782557   1.277891
    538   0.822128   1.216300
    539   0.948065   1.054791
    540   0.725875   1.377664
    541   0.763624   1.309515
    542   0.827772   1.208029
    543   0.752760   1.328375
    544   0.825813   1.210860
    545   0.851298   1.174681
    546   0.738332   1.354434
    547   0.699563   1.429402
    548   0.799192   1.251196
    549   0.794387   1.258785
    550   0.948474   1.054339
    551   0.725588   1.378185
    552   0.758709   1.318051
    553   0.821028   1.217955
    554   0.818327   1.221946
    555   0.858618   1.164595
    556   0.904047   1.106148
    557   0.846159   1.181825
    558   0.728235   1.373190
    559   0.725460   1.378362
    560   0.862630   1.159257
    561   0.856271   1.167797
    562   0.915541   1.092195
    563   0.784193   1.275124
    564   0.835153   1.197360
    565   0.797905   1.253215
    566   0.861134   1.161269
    567   0.936006   1.068363
    568   0.913923   1.094200
    569   0.770229   1.298333
    570   0.722434   1.384147
    571   0.741770   1.348096
    572   0.818367   1.221915
    573   0.923531   1.082820
    574   0.952012   1.050347
    575   0.749208   1.334721
    576   0.678749   1.473302
    577   0.829360   1.205776
    578   0.773081   1.293463
    579   0.951743   1.050647
    580   0.895619   1.116521
    581   0.851052   1.174978
    582   0.831718   1.202290
    583   0.911139   1.097476
    584   0.943999   1.059350
    585   0.872154   1.146609
    586   0.973564   1.027124
    587   0.737024   1.356727
    588   0.747829   1.337188
    589   0.743787   1.344477
    590   0.845893   1.182187
    591   0.872495   1.146071
    592   1.011154   0.988974
    593   0.822462   1.215882
    594   0.818327   1.221946
    595   0.793492   1.260216
    596   0.890370   1.123077
    597   0.897706   1.113971
    598   0.993411   1.006605
    599   0.786585   1.271346
    600   0.706511   1.415355
    601   0.791917   1.262705
    602   0.752243   1.329323
    603   0.822128   1.216300
    604   0.972434   1.028360
    605   0.739005   1.353165
    606   0.753053   1.327850
    607   0.786052   1.272115
    608   0.845893   1.182187
    609   0.780266   1.281613
    610   0.865614   1.155259
    611   0.730727   1.368414
    612   0.825454   1.211476
    613   0.775598   1.289331
    614   0.853925   1.171036
    615   1.020088   0.980275
    616   0.974709   1.025953
    617   0.903007   1.107361
    618   0.749128   1.334851
    619   0.718054   1.392618
    620   0.849361   1.177365
    621   0.993196   1.006799
    622   0.884220   1.130881
    623   1.006444   0.993621
    624   0.918898   1.088250
    625   0.779152   1.283474
    626   0.798315   1.252578
    627   0.867237   1.153036
    628   0.793492   1.260216
    629   0.839607   1.191056
    630   0.991566   1.008469
    631   0.791590   1.263211
    632   0.724095   1.381035
    633   0.753252   1.327502
    634   0.854883   1.169778
    635   0.888115   1.125977
    636   0.989784   1.010298
    637   0.907645   1.101732
    638   0.717900   1.392958
    639   0.714661   1.399280
    640   0.725858   1.377671
    641   0.731081   1.367812
    642   0.858618   1.164595
    643   0.825480   1.211341
    644   0.692410   1.444147
    645   0.753194   1.327665
    646   0.754953   1.324599
    647   0.760237   1.315387
    648   0.859363   1.163591
    649   0.687541   1.454388
    650   0.776141   1.288449
    651   0.727101   1.375259
    652   0.794387   1.258785
    653   1.134971   0.881092
    654   0.896663   1.115235
    655   0.704697   1.419044
    656   0.875131   1.142699
    657   0.834660   1.198060
    658   0.850430   1.175818
    659   0.852437   1.173123
    660   0.866398   1.154169
    661   0.869642   1.149828
    662   0.714877   1.398833
    663   0.764337   1.308343
    664   0.791590   1.263211
    665   0.873484   1.144774
    666   0.844772   1.183731
    667   1.091229   0.916400
    668   0.798403   1.252448
    669   0.800853   1.248697
    670   0.818910   1.221108
    671   0.836801   1.194972
    672   0.813570   1.229081
    673   0.891252   1.122031
    674   0.732585   1.365045
    675   0.773608   1.292574
    676   0.718803   1.391178
    677   0.724095   1.381035
    678   0.837225   1.194406
    679   0.924497   1.081616
    680   0.706818   1.414709
    681   0.809274   1.235686
    682   0.877741   1.139296
    683   0.753252   1.327502
    684   0.837225   1.194406
    685   0.889912   1.123705
    686   0.773188   1.293270
    687   0.774111   1.291823
    688   0.725460   1.378362
    689   0.821491   1.217286
    690   0.910869   1.097824
    691   1.117107   0.895171
    692   0.745007   1.342292
    693   0.911494   1.097101
    694   0.799688   1.250432
    695   0.812308   1.231067
    696   0.907038   1.102419
    697   1.020942   0.979449
    698   0.866934   1.153460
    699   0.754298   1.325756
    700   0.824406   1.213019
    701   0.891849   1.121211
    702   0.839742   1.190786
    703   0.964368   1.036931
    704   0.686341   1.456996
    705   0.796416   1.255613
    706   0.847702   1.179662
    707   0.878555   1.138169
    708   1.034233   0.966843
    709   1.022264   0.978228
    710   0.719480   1.389870
    711   0.765593   1.306208
    712   0.705584   1.417224
    713   0.759356   1.316832
    714   0.774410   1.291310
    715   0.848167   1.178952
    716   0.676564   1.477977
    717   0.824484   1.212865
    718   0.873685   1.144517
    719   0.870253   1.149097
    720   1.015743   0.984493
    721   0.990625   1.009467
    722   0.799605   1.250613
    723   0.859469   1.163515
    724   0.881197   1.134756
    725   0.840454   1.189760
    726   1.005297   0.994733
    727   0.914847   1.093077
    728   0.866931   1.153457
    729   0.849435   1.177266
    730   0.854975   1.169586
    731   0.976658   1.023916
    732   0.990973   1.009050
    733   0.839142   1.191722
    734   0.881551   1.134298
    735   0.878464   1.138305
    736   0.875131   1.142699
    737   1.009753   0.990305
    738   0.813688   1.228986
    739   0.796669   1.255160
    740   0.794304   1.258944
    741   0.919129   1.087964
    742   1.014241   0.985973
    743   1.000423   0.999517
    744   0.834660   1.198060
    745   0.972516   1.028209
    746   0.834927   1.197657
    747   0.961823   1.039715
    748   0.963137   1.038236
    749   1.053898   0.948866
    750   0.815634   1.226033
    751   0.740427   1.350573
    752   0.780266   1.281613
    753   1.000664   0.999273
    754   0.966800   1.034287
    755   0.773228   1.293280
    756   0.779154   1.283453
    757   0.873685   1.144517
    758   0.907387   1.102062
    759   1.028575   0.972205
    760   0.801782   1.247234
    761   0.911494   1.097101
    762   0.881197   1.134756
    763   1.021849   0.978559
    764   0.940337   1.063441
    765   0.976450   1.024115
    766   0.803431   1.244660
    767   0.833914   1.199172
    768   0.944309   1.058923
    769   0.890910   1.122432
    770   1.093626   0.914330
    771   1.013918   0.986281
    772   0.876244   1.141257
    773   0.852541   1.172967
    774   0.944309   1.058923
    775   1.105313   0.904699
    776   1.159838   0.862187
    777   0.762626   1.311186
    778   0.846158   1.181776
    779   0.870253   1.149097
    780   0.907387   1.102062
    781   0.878189   1.138646
    782   1.117564   0.894814
    783   0.731523   1.366941
    784   0.852872   1.172527
    785   0.847006   1.180611
    786   0.865614   1.155259
    787   1.000664   0.999273
    788   0.824851   1.212281
    789   0.869243   1.150437
    790   0.867198   1.153159
    791   0.826118   1.210411
    792   0.919129   1.087964
    793   0.724960   1.379403
    794   0.787135   1.270361
    795   0.784202   1.275144
    796   0.825454   1.211476
    797   0.972046   1.028708
    798   0.981991   1.018312
    799   0.792135   1.262370
    800   0.847694   1.179676
    801   0.950356   1.052210
    802   0.951743   1.050647
    803   0.945316   1.057857
    804   0.795269   1.257370
    805   0.867808   1.152325
    806   0.788792   1.267785
    807   0.825480   1.211341
    808   1.004953   0.995060
    809   0.768753   1.300741
    810   0.855479   1.168868
    811   0.936765   1.067528
    812   0.919783   1.087186
    813   0.911798   1.096733
    814   1.003533   0.996492
    815   0.799688   1.250432
    816   0.855479   1.168868
    817   0.980967   1.019388
    818   1.050021   0.952368
    819   1.104245   0.905607
    820   1.056996   0.946069
    821   0.748783   1.335431
    822   0.820741   1.218418
    823   0.804461   1.243043
    824   0.891849   1.121211
    825   0.944075   1.059258
    826   1.149670   0.869814
    827   0.815518   1.226237
    828   0.854883   1.169778
    829   0.947834   1.054989
    830   1.082505   0.923752
    831   1.061586   0.941951
    832   1.039055   0.962371
    833   0.762692   1.311167
    834   0.947312   1.055638
    835   0.827440   1.208503
    836   0.902040   1.108527
    837   0.948528   1.054232
    838   0.816194   1.225217
    839   0.872826   1.145671
    840   0.850430   1.175818
    841   0.839742   1.190786
    842   1.009753   0.990305
    843   0.887443   1.126855
    844   0.852437   1.173123
    845   0.972516   1.028209
    846   0.920908   1.085910
    847   0.973302   1.027393
    848   0.903119   1.107234
    849   0.838501   1.192564
    850   0.812695   1.230472
    851   0.767254   1.303348
    852   0.821708   1.216913
    853   0.797032   1.254586
    854   0.912872   1.095449
    855   0.799188   1.251272
    856   0.845970   1.182059
    857   0.775598   1.289331
    858   0.976137   1.024387
    859   1.015149   0.985026
    860   1.063330   0.940449
    861   0.758146   1.318943
    862   0.835968   1.196175
    863   0.890370   1.123077
    864   0.839607   1.191056
    865   0.874893   1.142962
    866   0.895252   1.117025
    867   0.743406   1.345116
    868   0.757786   1.319586
    869   1.006513   0.993496
    870   0.981344   1.019024
    871   0.985490   1.014744
    872   1.135801   0.880405
    873   0.897706   1.113971
    874   0.920908   1.085910
    875   0.874893   1.142962
    876   0.864754   1.156362
    877   0.963240   1.038108
    878   0.944431   1.058800
    879   0.904718   1.105325
    880   0.812832   1.230243
    881   0.924429   1.081698
    882   0.938002   1.066112
    883   0.786660   1.271208
    884   0.885129   1.129779
    885   0.812308   1.231067
    886   1.021849   0.978559
    887   0.980967   1.019388
    888   0.952218   1.050123
    889   0.777632   1.285982
    890   0.878431   1.138330
    891   0.826044   1.210523
    892   0.791487   1.263445
    893   1.042558   0.959175
    894   0.844719   1.183769
    895   0.765076   1.307064
    896   0.948474   1.054339
    897   0.859363   1.163591
    898   1.134170   0.881685
    899   0.790017   1.265807
    900   0.725230   1.378888
    901   0.976137   1.024387
    902   0.987509   1.012591
    903   1.006249   0.993782
    904   1.072886   0.932051
    905   0.800515   1.249133
    906   0.847505   1.179871
    907   0.976658   1.023916
    908   1.176678   0.849837
    909   0.927746   1.077811
    910   0.866398   1.154169
    911   0.887443   1.126855
    912   0.973302   1.027393
    913   0.952938   1.049405
    914   0.786558   1.271295
    915   0.826034   1.210609
    916   0.749766   1.333743
    917   0.990973   1.009050
    918   1.173418   0.852210
    919   0.779137   1.283481
    920   0.810461   1.233832
    921   0.803719   1.244198
    922   0.840454   1.189760
    923   0.947834   1.054989
    924   1.015230   0.985016
    925   0.840136   1.190221
    926   0.808690   1.236583
    927   0.928273   1.077256
    928   0.848167   1.178952
    929   0.912872   1.095449
    930   0.936765   1.067528
    931   0.924429   1.081698
    932   0.953231   1.049041
    933   1.193737   0.837671
    934   1.085029   0.921646
    935   0.744388   1.343325
    936   0.780507   1.281190
    937   0.802370   1.246240
    938   0.861134   1.161269
    939   0.890910   1.122432
    940   1.047753   0.954446
    941   0.901796   1.108912
    942   0.911139   1.097476
    943   0.836801   1.194972
    944   0.895425   1.116814
    945   1.053179   0.949482
    946   0.919698   1.087288
    947   0.805257   1.241814
    948   0.837096   1.194634
    949   0.834927   1.197657
    950   1.004392   0.995646
    951   0.960641   1.040916
    952   1.036738   0.964530
    953   0.766236   1.305075
    954   0.842771   1.186553
    955   0.987509   1.012591
    956   1.010766   0.989355
    957   1.127927   0.886539
    958   0.747780   1.337312
    959   1.006513   0.993496
    960   0.895425   1.116814
    961   1.027228   0.973463
    962   1.018786   0.981520
    963   1.036786   0.964475
    964   0.862255   1.159767
    965   0.858805   1.164358
    966   0.825813   1.210860
    967   1.028575   0.972205
    968   1.014894   0.985316
    969   0.808174   1.237355
    970   0.798417   1.252476
    971   0.936006   1.068363
    972   0.821491   1.217286
    973   1.003662   0.996296
    974   0.958802   1.042905
    975   0.729190   1.371400
    976   0.753248   1.327570
    977   0.787086   1.270515
    978   0.873484   1.144774
    979   0.878555   1.138169
    980   0.982570   1.017722
    981   0.784668   1.274428
    982   0.851298   1.174681
    983   1.014894   0.985316
    984   1.150739   0.868990
    985   0.735298   1.359957
    986   0.902040   1.108527
    987   0.903119   1.107234
    988   0.864754   1.156362
    989   0.952938   1.049405
    990   0.951195   1.051329
    991   0.768863   1.300564
    992   0.961823   1.039715
    993   0.838501   1.192564
    994   0.895252   1.117025
    995   0.963240   1.038108
    996   0.979466   1.020926
    997   0.795997   1.256222
    998   0.811845   1.231741
    999   0.953255   1.049053
   1000   1.015743   0.984493
   1001   0.878189   1.138646
   1002   0.825256   1.211721
   1003   0.845762   1.182376
   1004   0.861279   1.161080
   1005   0.813570   1.229081
   1006   0.948528   1.054232
   1007   0.819337   1.220463
   1008   0.761918   1.312505
   1009   0.768121   1.301896
   1010   0.983434   1.016784
   1011   1.086031   0.920763
   1012   0.924711   1.081372
   1013   0.896957   1.114843
   1014   0.774179   1.291666
   1015   0.789557   1.266552
   1016   0.859426   1.163570
   1017   0.872495   1.146071
   1018   0.830001   1.204750
   1019   0.849361   1.177365
   1020   0.938002   1.066112
   1021   0.953231   1.049041
   1022   1.034674   0.966481
   1023   0.998846   1.001097
   1024   0.774874   1.290471
   1025   0.888922   1.124897
   1026   0.862630   1.159257
   1027   0.923531   1.082820
   1028   0.910869   1.097824
   1029   0.816841   1.224262
   1030   0.876586   1.140735
   1031   0.888115   1.125977
   1032   0.844772   1.183731
   1033   0.924497   1.081616
   1034   0.867639   1.152484
   1035   0.857845   1.165712
   1036   0.803891   1.243967
   1037   0.853925   1.171036
   1038   0.972046   1.028708
   1039   0.958944   1.042784
   1040   0.856271   1.167797
   1041   0.913923   1.094200
   1042   1.117107   0.895171
   1043   1.003662   0.996296
   1044   0.929724   1.075523
   1045   0.904047   1.106148
   1046   0.993411   1.006605
   1047   0.944431   1.058800
   1048   0.951195   1.051329
   1049   0.838069   1.193210
   1050   0.834759   1.197976
   1051   0.897443   1.114213
   1052   0.993196   1.006799
   1053   1.034674   0.966481
   1054   0.876944   1.140346
   1055   0.854944   1.169603
   1056   0.949072   1.053660
   1057   0.884220   1.130881
   1058   1.201457   0.832311
   1059   0.850672   1.175524
   1060   0.829476   1.205515
   1061   0.912903   1.095429
   1062   1.173418   0.852210
   1063   1.133991   0.881806
   1064   0.910320   1.098478
   1065   0.855725   1.168531
   1066   1.014241   0.985973
   1067   1.034387   0.966726
   1068   1.171441   0.853666
   1069   0.911118   1.097555
   1070   0.816511   1.224662
   1071   1.020088   0.980275
   1072   0.981991   1.018312
   1073   1.173699   0.852022
   1074   0.855601   1.168776
   1075   0.896575   1.115373
   1076   0.914716   1.093186
   1077   0.966800   1.034287
   1078   1.075203   0.930027
   1079   0.804722   1.242655
   1080   0.914516   1.093461
   1081   0.788540   1.268105
   1082   0.884698   1.130348
   1083   0.849284   1.177412
   1084   0.932805   1.072045
   1085   0.936833   1.067417
   1086   1.105313   0.904699
   1087   1.034000   0.967058
   1088   0.996888   1.003063
   1089   0.989784   1.010298
   1090   0.889912   1.123705
   1091   1.082505   0.923752
   1092   1.015230   0.985017
   1093   0.805455   1.241515
   1094   0.915663   1.092058
   1095   1.102153   0.907299
   1096   1.186129   0.843035
   1097   1.253535   0.797761
   1098   0.930355   1.074800
   1099   0.870142   1.149248
   1100   0.963137   1.038236
   1101   1.004392   0.995646
   1102   0.979466   1.020926
   1103   0.897654   1.113950
   1104   1.005928   0.994053
   1105   1.004130   0.995900
   1106   1.006444   0.993621
   1107   0.794606   1.258413
   1108   0.865773   1.155059
   1109   0.869935   1.149458
   1110   1.006249   0.993782
   1111   1.010766   0.989355
   1112   0.805984   1.240736
   1113   0.830714   1.203728
   1114   0.956631   1.045357
   1115   1.034233   0.966843
   1116   1.075203   0.930027
   1117   0.832435   1.201271
   1118   0.854318   1.170455
   1119   1.011154   0.988974
   1120   1.222382   0.818080
   1121   1.103381   0.906265
   1122   0.911177   1.097426
   1123   0.891252   1.122031
   1124   1.053179   0.949482
   1125   1.027228   0.973463
   1126   1.044096   0.957776
   1127   0.846034   1.181930
   1128   0.836494   1.195400
   1129   1.022264   0.978228
   1130   1.117564   0.894814
   1131   0.982570   1.017722
   1132   0.796444   1.255542
   1133   0.908857   1.100230
   1134   0.889270   1.124448
   1135   0.972434   1.028360
   1136   0.990625   1.009467
   1137   0.795562   1.256905
   1138   0.926163   1.079742
   1139   0.907038   1.102419
   1140   1.005297   0.994733
   1141   0.940337   1.063441
   1142   0.863721   1.157737
   1143   0.870442   1.148833
   1144   1.093626   0.914330
   1145   1.047753   0.954446
   1146   1.106280   0.903932
   1147   0.963403   1.037996
   1148   0.919783   1.087186
   1149   1.050021   0.952368
   1150   0.952218   1.050123
   1151   1.193737   0.837671
   1152   0.842335   1.187196
   1153   0.829558   1.205445
   1154   0.960641   1.040916
   1155   1.034387   0.966726
   1156   1.227204   0.814866
   1157   0.825744   1.210961
   1158   1.134971   0.881092
   1159   1.134236   0.881599
   1160   1.156760   0.864476
   1161   1.184329   0.844365
   1162   0.777945   1.285372
   1163   0.907645   1.101732
   1164   1.091229   0.916400
   1165   1.061586   0.941951
   1166   1.229555   0.813321
   1167   0.823318   1.214551
   1168   0.916625   1.090982
   1169   0.974709   1.025953
   1170   0.991566   1.008469
   1171   1.015149   0.985026
   1172   0.809469   1.235353
   1173   1.171441   0.853666
   1174   1.222382   0.818080
   1175   1.135591   0.880574
   1176   0.777525   1.286079
   1177   0.943999   1.059350
   1178   0.981344   1.019024
   1179   0.919698   1.087288
   1180   1.018786   0.981520
   1181   1.066872   0.937296
   1182   0.859450   1.163552
   1183   0.871797   1.146985
   1184   1.103381   0.906265
   1185   1.227204   0.814866
   1186   1.135591   0.880574
   1187   0.849077   1.177773
   1188   0.794205   1.259057
   1189   0.935012   1.069508
   1190   0.915541   1.092195
   1191   1.167413   0.856579
   1192   0.909405   1.099573
   1193   0.885398   1.129382
   1194   0.895619   1.116521
   1195   0.872154   1.146609
   1196   0.945316   1.057857
   1197   1.039419   0.962047
   1198   0.838943   1.191982
   1199   0.896663   1.115235
   1200   0.983434   1.016784
   1201   1.134236   0.881599
   1202   1.104953   0.905022
   1203   0.915638   1.092152
   1204   0.950964   1.051592
   1205   1.127927   0.886539
   1206   1.186129   0.843035
   1207   0.914106   1.093982
   1208   0.790243   1.265403
   1209   0.869642   1.149828
   1210   1.053898   0.948866
   1211   1.036738   0.964530
   1212   0.805513   1.241381
   1213   0.784315   1.274990
   1214   0.897960   1.113580
   1215   0.913617   1.094550
   1216   0.985490   1.014744
   1217   0.831173   1.203117
   1218   0.833197   1.200189
   1219   0.865564   1.155253
   1220   0.878968   1.137717
   1221   0.952012   1.050347
   1222   0.918676   1.088510
   1223   1.020942   0.979449
   1224   1.104245   0.905607
   1225   1.156760   0.864476
   1226   1.114710   0.897046
   1227   0.811325   1.232572
   1228   1.015523   0.984658
   1229   0.978965   1.021434
   1230   0.914847   1.093077
   1231   0.976450   1.024115
   1232   0.911798   1.096733
   1233   1.056996   0.946069
   1234   1.184329   0.844365
   1235   1.114710   0.897046
   1236   1.133069   0.882508
   1237   0.882070   1.133651
   1238   0.903007   1.107361
   1239   1.063330   0.940449
   1240   1.072886   0.932051
   1241   1.173699   0.852022
   1242   0.876590   1.140750
   1243   1.003533   0.996492
   1244   1.086031   0.920763
   1245   1.104953   0.905022
   1246   1.133069   0.882508
   1247   0.838564   1.192538
   1248   0.914539   1.093438
   1249   0.943325   1.060057
   1250   0.924711   1.081372
   1251   1.133991   0.881806
   1252   0.847542   1.179851
   1253   0.914821   1.093132
   1254   0.839449   1.191194
   1255   0.898877   1.112492
   1256   0.802319   1.246390
   1257   0.841329   1.188531
   1258   0.807546   1.238266
   1259   0.985728   1.014498
   1260   1.134170   0.881685
   1261   0.857738   1.165850
   1262   0.889470   1.124285
   1263   0.935963   1.068368
   1264   1.000423   0.999517
   1265   1.167413   0.856579
   1266   0.989856   1.010197
   1267   0.918898   1.088250
   1268   1.085029   0.921646
   1269   0.998846   1.001097
   1270   1.201457   0.832311
   1271   0.851597   1.174269
   1272   0.876793   1.140532
   1273   1.135801   0.880405
   1274   0.958802   1.042905
   1275   1.066872   0.937296
   1276   0.853435   1.171703
   1277   0.990689   1.009403
   1278   0.964368   1.036931
   1279   0.944075   1.059258
   1280   1.152848   0.867372
   1281   0.958712   1.043050
   1282   1.054005   0.948757
   1283   1.149670   0.869814
   1284   1.152848   0.867372
   1285   0.812621   1.230554
   1286   0.783460   1.276336
   1287   1.039055   0.962371
   1288   1.150739   0.868990
   1289   1.229555   0.813321
   1290   0.851676   1.174184
   1291   0.858433   1.164846
   1292   0.994773   1.005261
   1293   0.973564   1.027124
   1294   1.039419   0.962047
   1295   0.850597   1.175638
   1296   0.819878   1.219653
   1297   0.973654   1.027067
   1298   1.176678   0.849837
   1299   1.034000   0.967058
   1300   0.852042   1.173671
   1301   0.825870   1.210843
   1302   0.798882   1.251687
   1303   0.936616   1.067619
   1304   1.042558   0.959175
   1305   0.844977   1.183392
   1306   0.882986   1.132458
   1307   0.948065   1.054791
   1308   1.013918   0.986281
   1309   1.106280   0.903932
   1310   1.006376   0.993614
   1311   0.982718   1.017539
   1312   1.159838   0.862187
   1313   1.253535   0.797761
   1314   0.905899   1.103878
   1315   0.982661   1.017602
   1316   1.004953   0.995060
   1317   1.036786   0.964475
   1318   1.044096   0.957776

Bonds # ['ID', 'type', 'atom1', 'atom2']

         1         1         1         5
         2         2         1        22
         3         3         1        73
         4         4         1        77
         5         5         1       111
         6         6         1       167
         7         7         1       187
         8         8         2        63
         9         9         2       129
        10        10         2       137
        11        11         2       140
        12        12         2       157
        13        13         2       207
        14        14         2       228
        15        15         3        15
        16        16         3        83
        17        17         3        94
        18        18         3       122
        19        19         3       123
        20        20         3       181
        21        21         3       226
        22        22         4         6
        23        23         4        67
        24        24         4       183
        25        25         4       186
        26        26         4       202
        27        27         4       205
        28        28         5         1
        29        29         5        23
        30        30         5        73
        31        31         5        76
        32        32         5        89
        33        33         5       167
        34        34         5       208
        35        35         6         4
        36        36         6        30
        37        37         6       117
        38        38         6       126
        39        39         6       186
        40        40         6       202
        41        41         6       217
        42        42         7        44
        43        43         7        53
        44        44         7        63
        45        45         7       112
        46        46         7       153
        47        47         7       193
        48        48         7       207
        49        49         8        42
        50        50         8        51
        51        51         8        69
        52        52         8       114
        53        53         8       150
        54        54         8       192
        55        55         8       225
        56        56         9        37
        57        57         9        52
        58        58         9       127
        59        59         9       149
        60        60         9       166
        61        61         9       176
        62        62         9       214
        63        63        10        45
        64        64        10        55
        65        65        10        59
        66        66        10        97
        67        67        10       116
        68        68        10       175
        69        69        10       185
        70        70        11        82
        71        71        11       130
        72        72        11       142
        73        73        11       166
        74        74        11       213
        75        75        11       214
        76        76        11       215
        77        77        12        14
        78        78        12        40
        79        79        12        44
        80        80        12        69
        81        81        12        84
        82        82        12       112
        83        83        13        25
        84        84        13        43
        85        85        13       125
        86        86        13       142
        87        87        13       168
        88        88        13       174
        89        89        13       215
        90        90        14        12
        91        91        14        44
        92        92        14        79
        93        93        14        83
        94        94        14        84
        95        95        14       158
        96        96        15         3
        97        97        15        62
        98        98        15        94
        99        99        15       115
       100       100        15       147
       101       101        15       181
       102       102        15       224
       103       103        16        34
       104       104        16        51
       105       105        16        85
       106       106        16       102
       107       107        16       109
       108       108        16       196
       109       109        16       209
       110       110        17        25
       111       111        17        27
       112       112        17        72
       113       113        17       119
       114       114        17       164
       115       115        17       179
       116       116        17       180
       117       117        18        19
       118       118        18        43
       119       119        18        49
       120       120        18        92
       121       121        18        95
       122       122        18       188
       123       123        18       201
       124       124        19        18
       125       125        19        43
       126       126        19        45
       127       127        19        49
       128       128        19        97
       129       129        19       174
       130       130        19       185
       131       131        20        33
       132       132        20        34
       133       133        20        40
       134       134        20       101
       135       135        20       137
       136       136        20       144
       137       137        20       151
       138       138        21        56
       139       139        21       117
       140       140        21       126
       141       141        21       155
       142       142        21       177
       143       143        21       184
       144       144        21       195
       145       145        22         1
       146       146        22        92
       147       147        22        95
       148       148        22       119
       149       149        22       167
       150       150        22       179
       151       151        22       187
       152       152        23         5
       153       153        23        41
       154       154        23        92
       155       155        23       167
       156       156        23       188
       157       157        23       208
       158       158        24        39
       159       159        24        55
       160       160        24        64
       161       161        24        75
       162       162        24        80
       163       163        24       107
       164       164        24       210
       165       165        25        13
       166       166        25        17
       167       167        25        82
       168       168        25       125
       169       169        25       180
       170       170        25       215
       171       171        26        47
       172       172        26        57
       173       173        26        73
       174       174        26        76
       175       175        26        78
       176       176        26       128
       177       177        27        17
       178       178        27        38
       179       179        27        62
       180       180        27       113
       181       181        27       164
       182       182        27       180
       183       183        27       191
       184       184        28        39
       185       185        28        47
       186       186        28        90
       187       187        28       106
       188       188        28       132
       189       189        28       221
       190       190        29        31
       191       191        29        52
       192       192        29        85
       193       193        29       102
       194       194        29       145
       195       195        29       171
       196       196        29       216
       197       197        30         6
       198       198        30        56
       199       199        30        81
       200       200        30       126
       201       201        30       138
       202       202        30       146
       203       203        30       186
       204       204        31        29
       205       205        31        74
       206       206        31        96
       207       207        31        98
       208       208        31       171
       209       209        31       198
       210       210        31       216
       211       211        32        50
       212       212        32        91
       213       213        32       108
       214       214        32       159
       215       215        32       200
       216       216        32       219
       217       217        32       223
       218       218        33        20
       219       219        33        36
       220       220        33       100
       221       221        33       101
       222       222        33       129
       223       223        33       137
       224       224        34        16
       225       225        34        20
       226       226        34        51
       227       227        34        85
       228       228        34       101
       229       229        34       144
       230       230        35        46
       231       231        35        86
       232       232        35       100
       233       233        35       134
       234       234        35       162
       235       235        35       165
       236       236        35       173
       237       237        36        33
       238       238        36        74
       239       239        36        86
       240       240        36       100
       241       241        36       101
       242       242        36       145
       243       243        36       216
       244       244        37         9
       245       245        37        54
       246       246        37       127
       247       247        37       147
       248       248        37       149
       249       249        37       178
       250       250        38        27
       251       251        38        62
       252       252        38        82
       253       253        38       115
       254       254        38       149
       255       255        38       176
       256       256        38       180
       257       257        39        24
       258       258        39        28
       259       259        39        64
       260       260        39       106
       261       261        39       107
       262       262        39       132
       263       263        40        12
       264       264        40        20
       265       265        40        69
       266       266        40       112
       267       267        40       144
       268       268        40       151
       269       269        40       225
       270       270        41        23
       271       271        41        68
       272       272        41       117
       273       273        41       177
       274       274        41       199
       275       275        41       208
       276       276        41       217
       277       277        42         8
       278       278        42        69
       279       279        42        84
       280       280        42       133
       281       281        42       150
       282       282        42       222
       283       283        43        13
       284       284        43        18
       285       285        43        19
       286       286        43        95
       287       287        43       125
       288       288        43       174
       289       289        44         7
       290       290        44        12
       291       291        44        14
       292       292        44       112
       293       293        44       193
       294       294        44       226
       295       295        45        10
       296       296        45        19
       297       297        45        49
       298       298        45       103
       299       299        45       116
       300       300        45       185
       301       301        45       206
       302       302        46        35
       303       303        46       100
       304       304        46       129
       305       305        46       165
       306       306        46       189
       307       307        46       228
       308       308        47        26
       309       309        47        28
       310       310        47        57
       311       311        47        90
       312       312        47       106
       313       313        47       128
       314       314        47       170
       315       315        48       104
       316       316        48       120
       317       317        48       124
       318       318        48       160
       319       319        48       161
       320       320        48       190
       321       321        48       197
       322       322        48       222
       323       323        49        18
       324       324        49        19
       325       325        49        45
       326       326        49       155
       327       327        49       195
       328       328        49       201
       329       329        49       206
       330       330        50        32
       331       331        50        76
       332       332        50        78
       333       333        50        89
       334       334        50       108
       335       335        50       169
       336       336        50       223
       337       337        51         8
       338       338        51        16
       339       339        51        34
       340       340        51       144
       341       341        51       192
       342       342        51       225
       343       343        52         9
       344       344        52        29
       345       345        52       102
       346       346        52       127
       347       347        52       166
       348       348        52       171
       349       349        52       204
       350       350        53         7
       351       351        53        88
       352       352        53       140
       353       353        53       153
       354       354        53       159
       355       355        53       207
       356       356        53       219
       357       357        54        37
       358       358        54        58
       359       359        54       146
       360       360        54       156
       361       361        54       178
       362       362        54       212
       363       363        54       224
       364       364        55        10
       365       365        55        24
       366       366        55        59
       367       367        55        61
       368       368        55        64
       369       369        55        80
       370       370        55       175
       371       371        56        21
       372       372        56        30
       373       373        56        81
       374       374        56       126
       375       375        56       139
       376       376        56       163
       377       377        56       184
       378       378        57        26
       379       379        57        47
       380       380        57        77
       381       381        57       104
       382       382        57       160
       383       383        57       170
       384       384        58        54
       385       385        58       156
       386       386        58       181
       387       387        58       205
       388       388        58       224
       389       389        58       227
       390       390        59        10
       391       391        59        55
       392       392        59        64
       393       393        59       110
       394       394        59       116
       395       395        59       135
       396       396        60        67
       397       397        60        88
       398       398        60       122
       399       399        60       123
       400       400        60       153
       401       401        60       183
       402       402        60       227
       403       403        61        55
       404       404        61        80
       405       405        61       143
       406       406        61       175
       407       407        61       194
       408       408        61       218
       409       409        62        15
       410       410        62        27
       411       411        62        38
       412       412        62        94
       413       413        62       115
       414       414        62       191
       415       415        63         2
       416       416        63         7
       417       417        63       112
       418       418        63       137
       419       419        63       151
       420       420        63       207
       421       421        64        24
       422       422        64        39
       423       423        64        55
       424       424        64        59
       425       425        64       110
       426       426        64       132
       427       427        65        70
       428       428        65        90
       429       429        65        91
       430       430        65       105
       431       431        65       154
       432       432        65       203
       433       433        66        71
       434       434        66       110
       435       435        66       134
       436       436        66       135
       437       437        66       148
       438       438        66       220
       439       439        67         4
       440       440        67        60
       441       441        67        87
       442       442        67        88
       443       443        67       172
       444       444        67       183
       445       445        68        41
       446       446        68        87
       447       447        68        89
       448       448        68       169
       449       449        68       202
       450       450        68       208
       451       451        68       217
       452       452        69         8
       453       453        69        12
       454       454        69        40
       455       455        69        42
       456       456        69        84
       457       457        69       225
       458       458        70        65
       459       459        70        71
       460       460        70        90
       461       461        70       105
       462       462        70       221
       463       463        71        66
       464       464        71        70
       465       465        71       105
       466       466        71       134
       467       467        71       165
       468       468        71       220
       469       469        72        17
       470       470        72       111
       471       471        72       124
       472       472        72       164
       473       473        72       179
       474       474        72       187
       475       475        72       190
       476       476        73         1
       477       477        73         5
       478       478        73        26
       479       479        73        76
       480       480        73        77
       481       481        74        31
       482       482        74        36
       483       483        74        86
       484       484        74        93
       485       485        74        98
       486       486        74       216
       487       487        75        24
       488       488        75       107
       489       489        75       114
       490       490        75       150
       491       491        75       182
       492       492        75       210
       493       493        76         5
       494       494        76        26
       495       495        76        50
       496       496        76        73
       497       497        76        78
       498       498        76        89
       499       499        77         1
       500       500        77        57
       501       501        77        73
       502       502        77       111
       503       503        77       160
       504       504        78        26
       505       505        78        50
       506       506        78        76
       507       507        78       128
       508       508        78       203
       509       509        78       223
       510       510        79        14
       511       511        79        83
       512       512        79        94
       513       513        79       113
       514       514        79       120
       515       515        79       158
       516       516        79       191
       517       517        80        24
       518       518        80        55
       519       519        80        61
       520       520        80       121
       521       521        80       143
       522       522        80       210
       523       523        81        30
       524       524        81        56
       525       525        81        98
       526       526        81       138
       527       527        81       139
       528       528        81       198
       529       529        82        11
       530       530        82        25
       531       531        82        38
       532       532        82       176
       533       533        82       214
       534       534        82       215
       535       535        83         3
       536       536        83        14
       537       537        83        79
       538       538        83        94
       539       539        83       226
       540       540        84        12
       541       541        84        14
       542       542        84        42
       543       543        84        69
       544       544        84       158
       545       545        84       161
       546       546        85        16
       547       547        85        29
       548       548        85        34
       549       549        85       102
       550       550        85       145
       551       551        86        35
       552       552        86        36
       553       553        86        74
       554       554        86        93
       555       555        86       100
       556       556        86       173
       557       557        87        67
       558       558        87        68
       559       559        87       108
       560       560        87       169
       561       561        87       172
       562       562        87       202
       563       563        88        53
       564       564        88        60
       565       565        88        67
       566       566        88       153
       567       567        88       159
       568       568        88       172
       569       569        89         5
       570       570        89        50
       571       571        89        68
       572       572        89        76
       573       573        89       169
       574       574        89       208
       575       575        90        28
       576       576        90        47
       577       577        90        65
       578       578        90        70
       579       579        90       128
       580       580        90       203
       581       581        91        32
       582       582        91        65
       583       583        91       154
       584       584        91       200
       585       585        91       203
       586       586        91       223
       587       587        92        18
       588       588        92        22
       589       589        92        23
       590       590        92        95
       591       591        92       167
       592       592        92       188
       593       593        93        74
       594       594        93        86
       595       595        93        98
       596       596        93       139
       597       597        93       141
       598       598        93       173
       599       599        94         3
       600       600        94        15
       601       601        94        62
       602       602        94        79
       603       603        94        83
       604       604        94       191
       605       605        95        18
       606       606        95        22
       607       607        95        43
       608       608        95        92
       609       609        95       119
       610       610        95       125
       611       611        96        31
       612       612        96       127
       613       613        96       138
       614       614        96       171
       615       615        96       178
       616       616        96       198
       617       617        96       212
       618       618        97        10
       619       619        97        19
       620       620        97       168
       621       621        97       174
       622       622        97       175
       623       623        97       185
       624       624        97       218
       625       625        98        31
       626       626        98        74
       627       627        98        81
       628       628        98        93
       629       629        98       139
       630       630        98       198
       631       631        99       104
       632       632        99       106
       633       633        99       107
       634       634        99       133
       635       635        99       170
       636       636        99       182
       637       637        99       197
       638       638       100        33
       639       639       100        35
       640       640       100        36
       641       641       100        46
       642       642       100        86
       643       643       100       129
       644       644       101        20
       645       645       101        33
       646       646       101        34
       647       647       101        36
       648       648       101       145
       649       649       102        16
       650       650       102        29
       651       651       102        52
       652       652       102        85
       653       653       102       196
       654       654       102       204
       655       655       103        45
       656       656       103       116
       657       657       103       118
       658       658       103       135
       659       659       103       136
       660       660       103       148
       661       661       103       206
       662       662       104        48
       663       663       104        57
       664       664       104        99
       665       665       104       160
       666       666       104       170
       667       667       104       197
       668       668       105        65
       669       669       105        70
       670       670       105        71
       671       671       105       154
       672       672       105       165
       673       673       105       189
       674       674       106        28
       675       675       106        39
       676       676       106        47
       677       677       106        99
       678       678       106       107
       679       679       106       170
       680       680       107        24
       681       681       107        39
       682       682       107        75
       683       683       107        99
       684       684       107       106
       685       685       107       182
       686       686       108        32
       687       687       108        50
       688       688       108        87
       689       689       108       159
       690       690       108       169
       691       691       108       172
       692       692       109        16
       693       693       109       121
       694       694       109       131
       695       695       109       143
       696       696       109       192
       697       697       109       209
       698       698       110        59
       699       699       110        64
       700       700       110        66
       701       701       110       132
       702       702       110       135
       703       703       110       220
       704       704       111         1
       705       705       111        72
       706       706       111        77
       707       707       111       160
       708       708       111       187
       709       709       111       190
       710       710       112         7
       711       711       112        12
       712       712       112        40
       713       713       112        44
       714       714       112        63
       715       715       112       151
       716       716       113        27
       717       717       113        79
       718       718       113       120
       719       719       113       124
       720       720       113       164
       721       721       113       191
       722       722       114         8
       723       723       114        75
       724       724       114       121
       725       725       114       150
       726       726       114       192
       727       727       114       210
       728       728       115        15
       729       729       115        38
       730       730       115        62
       731       731       115       147
       732       732       115       149
       733       733       116        10
       734       734       116        45
       735       735       116        59
       736       736       116       103
       737       737       116       135
       738       738       117         6
       739       739       117        21
       740       740       117        41
       741       741       117       126
       742       742       117       177
       743       743       117       217
       744       744       118       103
       745       745       118       136
       746       746       118       155
       747       747       118       163
       748       748       118       184
       749       749       118       206
       750       750       119        17
       751       751       119        22
       752       752       119        95
       753       753       119       125
       754       754       119       179
       755       755       120        48
       756       756       120        79
       757       757       120       113
       758       758       120       124
       759       759       120       158
       760       760       121        80
       761       761       121       109
       762       762       121       114
       763       763       121       143
       764       764       121       192
       765       765       121       210
       766       766       122         3
       767       767       122        60
       768       768       122       123
       769       769       122       153
       770       770       122       193
       771       771       122       226
       772       772       123         3
       773       773       123        60
       774       774       123       122
       775       775       123       181
       776       776       123       227
       777       777       124        48
       778       778       124        72
       779       779       124       113
       780       780       124       120
       781       781       124       164
       782       782       124       190
       783       783       125        13
       784       784       125        25
       785       785       125        43
       786       786       125        95
       787       787       125       119
       788       788       126         6
       789       789       126        21
       790       790       126        30
       791       791       126        56
       792       792       126       117
       793       793       127         9
       794       794       127        37
       795       795       127        52
       796       796       127        96
       797       797       127       171
       798       798       127       178
       799       799       128        26
       800       800       128        47
       801       801       128        78
       802       802       128        90
       803       803       128       203
       804       804       129         2
       805       805       129        33
       806       806       129        46
       807       807       129       100
       808       808       129       228
       809       809       130        11
       810       810       130       131
       811       811       130       152
       812       812       130       194
       813       813       130       211
       814       814       130       213
       815       815       131       109
       816       816       131       130
       817       817       131       143
       818       818       131       194
       819       819       131       209
       820       820       131       211
       821       821       132        28
       822       822       132        39
       823       823       132        64
       824       824       132       110
       825       825       132       220
       826       826       132       221
       827       827       133        42
       828       828       133        99
       829       829       133       150
       830       830       133       182
       831       831       133       197
       832       832       133       222
       833       833       134        35
       834       834       134        66
       835       835       134        71
       836       836       134       162
       837       837       134       165
       838       838       135        59
       839       839       135        66
       840       840       135       103
       841       841       135       110
       842       842       135       116
       843       843       135       148
       844       844       136       103
       845       845       136       118
       846       846       136       141
       847       847       136       148
       848       848       136       162
       849       849       136       163
       850       850       137         2
       851       851       137        20
       852       852       137        33
       853       853       137        63
       854       854       137       151
       855       855       138        30
       856       856       138        81
       857       857       138        96
       858       858       138       146
       859       859       138       198
       860       860       138       212
       861       861       139        56
       862       862       139        81
       863       863       139        93
       864       864       139        98
       865       865       139       141
       866       866       139       163
       867       867       140         2
       868       868       140        53
       869       869       140       157
       870       870       140       200
       871       871       140       207
       872       872       140       219
       873       873       141        93
       874       874       141       136
       875       875       141       139
       876       876       141       162
       877       877       141       163
       878       878       141       173
       879       879       142        11
       880       880       142        13
       881       881       142       152
       882       882       142       168
       883       883       143        61
       884       884       143        80
       885       885       143       109
       886       886       143       121
       887       887       143       131
       888       888       143       194
       889       889       144        20
       890       890       144        34
       891       891       144        40
       892       892       144        51
       893       893       144       225
       894       894       145        29
       895       895       145        36
       896       896       145        85
       897       897       145       101
       898       898       145       216
       899       899       146        30
       900       900       146        54
       901       901       146       138
       902       902       146       156
       903       903       146       186
       904       904       146       212
       905       905       147        15
       906       906       147        37
       907       907       147       115
       908       908       147       224
       909       909       148        66
       910       910       148       103
       911       911       148       135
       912       912       148       136
       913       913       148       162
       914       914       149         9
       915       915       149        37
       916       916       149        38
       917       917       149       115
       918       918       149       176
       919       919       150         8
       920       920       150        42
       921       921       150        75
       922       922       150       114
       923       923       150       133
       924       924       150       182
       925       925       151        20
       926       926       151        40
       927       927       151        63
       928       928       151       112
       929       929       151       137
       930       930       152       130
       931       931       152       142
       932       932       152       168
       933       933       152       194
       934       934       152       218
       935       935       153         7
       936       936       153        53
       937       937       153        60
       938       938       153        88
       939       939       153       122
       940       940       153       193
       941       941       154        65
       942       942       154        91
       943       943       154       105
       944       944       154       157
       945       945       154       189
       946       946       154       200
       947       947       155        21
       948       948       155        49
       949       949       155       118
       950       950       155       184
       951       951       155       195
       952       952       155       206
       953       953       156        54
       954       954       156        58
       955       955       156       146
       956       956       156       186
       957       957       156       205
       958       958       157         2
       959       959       157       140
       960       960       157       154
       961       961       157       189
       962       962       157       200
       963       963       157       228
       964       964       158        14
       965       965       158        79
       966       966       158        84
       967       967       158       120
       968       968       158       161
       969       969       159        32
       970       970       159        53
       971       971       159        88
       972       972       159       108
       973       973       159       172
       974       974       159       219
       975       975       160        48
       976       976       160        57
       977       977       160        77
       978       978       160       104
       979       979       160       111
       980       980       160       190
       981       981       161        48
       982       982       161        84
       983       983       161       158
       984       984       161       222
       985       985       162        35
       986       986       162       134
       987       987       162       136
       988       988       162       141
       989       989       162       148
       990       990       162       173
       991       991       163        56
       992       992       163       118
       993       993       163       136
       994       994       163       139
       995       995       163       141
       996       996       163       184
       997       997       164        17
       998       998       164        27
       999       999       164        72
      1000      1000       164       113
      1001      1001       164       124
      1002      1002       165        35
      1003      1003       165        46
      1004      1004       165        71
      1005      1005       165       105
      1006      1006       165       134
      1007      1007       166         9
      1008      1008       166        11
      1009      1009       166        52
      1010      1010       166       204
      1011      1011       166       213
      1012      1012       166       214
      1013      1013       167         1
      1014      1014       167         5
      1015      1015       167        22
      1016      1016       167        23
      1017      1017       167        92
      1018      1018       168        13
      1019      1019       168        97
      1020      1020       168       142
      1021      1021       168       152
      1022      1022       168       174
      1023      1023       168       218
      1024      1024       169        50
      1025      1025       169        68
      1026      1026       169        87
      1027      1027       169        89
      1028      1028       169       108
      1029      1029       170        47
      1030      1030       170        57
      1031      1031       170        99
      1032      1032       170       104
      1033      1033       170       106
      1034      1034       171        29
      1035      1035       171        31
      1036      1036       171        52
      1037      1037       171        96
      1038      1038       171       127
      1039      1039       172        67
      1040      1040       172        87
      1041      1041       172        88
      1042      1042       172       108
      1043      1043       172       159
      1044      1044       173        35
      1045      1045       173        86
      1046      1046       173        93
      1047      1047       173       141
      1048      1048       173       162
      1049      1049       174        13
      1050      1050       174        19
      1051      1051       174        43
      1052      1052       174        97
      1053      1053       174       168
      1054      1054       175        10
      1055      1055       175        55
      1056      1056       175        61
      1057      1057       175        97
      1058      1058       175       218
      1059      1059       176         9
      1060      1060       176        38
      1061      1061       176        82
      1062      1062       176       149
      1063      1063       176       214
      1064      1064       177        21
      1065      1065       177        41
      1066      1066       177       117
      1067      1067       177       195
      1068      1068       177       199
      1069      1069       178        37
      1070      1070       178        54
      1071      1071       178        96
      1072      1072       178       127
      1073      1073       178       212
      1074      1074       179        17
      1075      1075       179        22
      1076      1076       179        72
      1077      1077       179       119
      1078      1078       179       187
      1079      1079       180        17
      1080      1080       180        25
      1081      1081       180        27
      1082      1082       180        38
      1083      1083       181         3
      1084      1084       181        15
      1085      1085       181        58
      1086      1086       181       123
      1087      1087       181       224
      1088      1088       182        75
      1089      1089       182        99
      1090      1090       182       107
      1091      1091       182       133
      1092      1092       182       150
      1093      1093       183         4
      1094      1094       183        60
      1095      1095       183        67
      1096      1096       183       205
      1097      1097       183       227
      1098      1098       184        21
      1099      1099       184        56
      1100      1100       184       118
      1101      1101       184       155
      1102      1102       184       163
      1103      1103       185        10
      1104      1104       185        19
      1105      1105       185        45
      1106      1106       185        97
      1107      1107       186         4
      1108      1108       186         6
      1109      1109       186        30
      1110      1110       186       146
      1111      1111       186       156
      1112      1112       187         1
      1113      1113       187        22
      1114      1114       187        72
      1115      1115       187       111
      1116      1116       187       179
      1117      1117       188        18
      1118      1118       188        23
      1119      1119       188        92
      1120      1120       188       199
      1121      1121       188       201
      1122      1122       189        46
      1123      1123       189       105
      1124      1124       189       154
      1125      1125       189       157
      1126      1126       189       228
      1127      1127       190        48
      1128      1128       190        72
      1129      1129       190       111
      1130      1130       190       124
      1131      1131       190       160
      1132      1132       191        27
      1133      1133       191        62
      1134      1134       191        79
      1135      1135       191        94
      1136      1136       191       113
      1137      1137       192         8
      1138      1138       192        51
      1139      1139       192       109
      1140      1140       192       114
      1141      1141       192       121
      1142      1142       193         7
      1143      1143       193        44
      1144      1144       193       122
      1145      1145       193       153
      1146      1146       193       226
      1147      1147       194        61
      1148      1148       194       130
      1149      1149       194       131
      1150      1150       194       143
      1151      1151       194       152
      1152      1152       195        21
      1153      1153       195        49
      1154      1154       195       155
      1155      1155       195       177
      1156      1156       195       201
      1157      1157       196        16
      1158      1158       196       102
      1159      1159       196       204
      1160      1160       196       209
      1161      1161       196       211
      1162      1162       197        48
      1163      1163       197        99
      1164      1164       197       104
      1165      1165       197       133
      1166      1166       197       222
      1167      1167       198        31
      1168      1168       198        81
      1169      1169       198        96
      1170      1170       198        98
      1171      1171       198       138
      1172      1172       199        41
      1173      1173       199       177
      1174      1174       199       188
      1175      1175       199       201
      1176      1176       200        32
      1177      1177       200        91
      1178      1178       200       140
      1179      1179       200       154
      1180      1180       200       157
      1181      1181       200       219
      1182      1182       201        18
      1183      1183       201        49
      1184      1184       201       188
      1185      1185       201       195
      1186      1186       201       199
      1187      1187       202         4
      1188      1188       202         6
      1189      1189       202        68
      1190      1190       202        87
      1191      1191       202       217
      1192      1192       203        65
      1193      1193       203        78
      1194      1194       203        90
      1195      1195       203        91
      1196      1196       203       128
      1197      1197       203       223
      1198      1198       204        52
      1199      1199       204       102
      1200      1200       204       166
      1201      1201       204       196
      1202      1202       204       213
      1203      1203       205         4
      1204      1204       205        58
      1205      1205       205       156
      1206      1206       205       183
      1207      1207       206        45
      1208      1208       206        49
      1209      1209       206       103
      1210      1210       206       118
      1211      1211       206       155
      1212      1212       207         2
      1213      1213       207         7
      1214      1214       207        53
      1215      1215       207        63
      1216      1216       207       140
      1217      1217       208         5
      1218      1218       208        23
      1219      1219       208        41
      1220      1220       208        68
      1221      1221       208        89
      1222      1222       209        16
      1223      1223       209       109
      1224      1224       209       131
      1225      1225       209       196
      1226      1226       209       211
      1227      1227       210        24
      1228      1228       210        75
      1229      1229       210        80
      1230      1230       210       114
      1231      1231       210       121
      1232      1232       211       130
      1233      1233       211       131
      1234      1234       211       196
      1235      1235       211       209
      1236      1236       211       213
      1237      1237       212        54
      1238      1238       212        96
      1239      1239       212       138
      1240      1240       212       146
      1241      1241       212       178
      1242      1242       213        11
      1243      1243       213       130
      1244      1244       213       166
      1245      1245       213       204
      1246      1246       213       211
      1247      1247       214         9
      1248      1248       214        11
      1249      1249       214        82
      1250      1250       214       166
      1251      1251       214       176
      1252      1252       215        11
      1253      1253       215        13
      1254      1254       215        25
      1255      1255       215        82
      1256      1256       216        29
      1257      1257       216        31
      1258      1258       216        36
      1259      1259       216        74
      1260      1260       216       145
      1261      1261       217         6
      1262      1262       217        41
      1263      1263       217        68
      1264      1264       217       117
      1265      1265       217       202
      1266      1266       218        61
      1267      1267       218        97
      1268      1268       218       152
      1269      1269       218       168
      1270      1270       218       175
      1271      1271       219        32
      1272      1272       219        53
      1273      1273       219       140
      1274      1274       219       159
      1275      1275       219       200
      1276      1276       220        66
      1277      1277       220        71
      1278      1278       220       110
      1279      1279       220       132
      1280      1280       220       221
      1281      1281       221        28
      1282      1282       221        70
      1283      1283       221       132
      1284      1284       221       220
      1285      1285       222        42
      1286      1286       222        48
      1287      1287       222       133
      1288      1288       222       161
      1289      1289       222       197
      1290      1290       223        32
      1291      1291       223        50
      1292      1292       223        78
      1293      1293       223        91
      1294      1294       223       203
      1295      1295       224        15
      1296      1296       224        54
      1297      1297       224        58
      1298      1298       224       147
      1299      1299       224       181
      1300      1300       225         8
      1301      1301       225        40
      1302      1302       225        51
      1303      1303       225        69
      1304      1304       225       144
      1305      1305       226         3
      1306      1306       226        44
      1307      1307       226        83
      1308      1308       226       122
      1309      1309       226       193
      1310      1310       227        58
      1311      1311       227        60
      1312      1312       227       123
      1313      1313       227       183
      1314      1314       228         2
      1315      1315       228        46
      1316      1316       228       129
      1317      1317       228       157
      1318      1318       228       189

Angle Coeffs # ['angleID', 'energy', 'value (deg)']

   2171   0.000000 170.339605
    191   0.000000 103.948970
   1703   0.000000 161.304095
    610   0.000000 101.670868
   2444   0.000000 169.597866
    639   0.000000 174.330514
    979   0.000000  93.309486
    244   0.000000 161.908770
   1498   0.000000 119.124820
    416   0.000000 106.639081
   2852   0.000000 146.237365
   2377   0.000000 124.963353
    533   0.000000 177.220924
   1091   0.000000 126.292535
   3015   0.000000 147.271052
   1384   0.000000 173.634615
    232   0.000000  63.337498
    778   0.000000  61.922829
   1402   0.000000  61.753087
   1405   0.000000  55.208497
   2174   0.000000  51.029314
   1767   0.000000 130.535621
   3198   0.000000 142.437288
   2518   0.000000  73.218596
    245   0.000000 150.557137
   2764   0.000000  74.512288
   3074   0.000000 149.466796
   1257   0.000000 114.467464
   1335   0.000000 107.635493
   2600   0.000000 136.232575
   1501   0.000000 164.140660
    921   0.000000  76.856785
    300   0.000000 105.878995
    389   0.000000  53.814792
     93   0.000000 152.170228
   1000   0.000000 160.211396
   2167   0.000000 165.653800
    783   0.000000 171.986623
     80   0.000000  56.962600
    756   0.000000  55.376694
   1641   0.000000  59.651278
   2349   0.000000 150.409420
   2626   0.000000 146.777347
   3029   0.000000 152.204647
    417   0.000000 152.396694
   2855   0.000000  69.753471
   2176   0.000000 124.903790
   1327   0.000000 152.224558
   3005   0.000000  56.898120
   1121   0.000000  57.735523
   3175   0.000000  79.820385
   1607   0.000000 113.203613
   2005   0.000000 176.800439
    195   0.000000 167.420304
   2009   0.000000 124.833149
    384   0.000000  53.623649
    497   0.000000 159.942636
   1019   0.000000 104.033749
   1589   0.000000  52.541625
   3223   0.000000  80.256672
   2445   0.000000 130.878021
    802   0.000000 163.778529
   2630   0.000000 141.386803
    559   0.000000  46.421433
   1699   0.000000 109.038636
   1254   0.000000  62.964155
   1676   0.000000  58.908348
   2421   0.000000 108.969494
    184   0.000000 166.521362
    974   0.000000 108.174872
   2120   0.000000 142.950717
   2614   0.000000 174.143523
   2090   0.000000  61.408985
   1454   0.000000  48.309145
   2901   0.000000 131.136272
    872   0.000000 103.861452
    275   0.000000 105.759953
   2564   0.000000 131.388725
   2824   0.000000 134.406833
   1273   0.000000 156.300734
    794   0.000000 138.429229
   1262   0.000000 100.485504
    538   0.000000  58.612298
   1952   0.000000 123.333110
   2537   0.000000 171.260684
   1393   0.000000 116.243701
    513   0.000000  98.573742
   1523   0.000000 160.562126
   1028   0.000000  48.629354
   1700   0.000000  57.228240
    150   0.000000 148.702226
   1055   0.000000  57.310841
   2536   0.000000 124.872130
    609   0.000000 151.620693
   2396   0.000000 168.772952
    269   0.000000 126.160993
   1282   0.000000  67.768946
   2937   0.000000  69.199224
    444   0.000000  47.094493
   1135   0.000000 134.516643
   1208   0.000000  68.921594
   1515   0.000000 178.799962
    817   0.000000  61.223600
   2828   0.000000  77.108213
   1982   0.000000  74.741359
   1973   0.000000 130.366049
   3019   0.000000  63.099930
   1437   0.000000 100.977654
   2107   0.000000  83.270285
    541   0.000000 121.746926
   2293   0.000000 124.797856
    345   0.000000 104.601747
   2459   0.000000  65.737759
   1436   0.000000  54.489460
   3179   0.000000  75.724746
   1319   0.000000 164.797252
     69   0.000000  38.164813
   1067   0.000000  98.968089
   1386   0.000000 120.299339
   1739   0.000000 153.874521
   2899   0.000000 135.462565
   1690   0.000000 141.860053
   2609   0.000000 115.359976
   2689   0.000000  78.339055
   1034   0.000000 138.370387
   2341   0.000000  58.204081
   1550   0.000000 101.743443
   1547   0.000000  40.105690
   2371   0.000000 122.472522
   2384   0.000000  64.905821
   2779   0.000000  76.730780
   2747   0.000000  73.992903
   1592   0.000000 114.704214
    903   0.000000  39.641765
   1670   0.000000 174.455072
   2473   0.000000 126.772690
   2613   0.000000  62.060048
   1791   0.000000  96.664152
   1683   0.000000 161.622769
    523   0.000000 136.672004
   3213   0.000000 158.647608
    555   0.000000 159.326517
   1470   0.000000  51.169058
   1511   0.000000  48.762390
   3215   0.000000 169.502554
    130   0.000000  98.008656
   1109   0.000000  46.183061
   2244   0.000000 121.609292
     16   0.000000  49.149803
   2603   0.000000 151.272820
   1943   0.000000 121.383823
   2774   0.000000 146.119317
    155   0.000000 150.502319
    503   0.000000 152.867069
   1322   0.000000  56.380122
   3058   0.000000  67.878766
    883   0.000000 155.581453
   2720   0.000000 132.938605
   2882   0.000000 152.130028
   2328   0.000000 178.774808
   2968   0.000000 152.069772
   2820   0.000000  61.407222
   3144   0.000000  69.842927
   1002   0.000000  47.872113
   2724   0.000000  78.755563
    938   0.000000 145.696237
   1967   0.000000  63.825156
    621   0.000000  57.453307
    767   0.000000 162.522278
    537   0.000000  63.134628
     58   0.000000  52.478042
    660   0.000000 118.626212
    632   0.000000 176.574044
   2587   0.000000 123.468322
   2806   0.000000  87.917925
   2436   0.000000 170.222429
   1390   0.000000 178.500204
   2513   0.000000  78.958854
    568   0.000000 107.236692
    871   0.000000 169.601566
   1713   0.000000 153.160561
   1281   0.000000 112.667795
   1081   0.000000 154.879844
    148   0.000000 104.529079
   1733   0.000000 143.318388
   1302   0.000000 118.787808
     74   0.000000 130.900499
   1076   0.000000 164.664338
   1423   0.000000 151.360819
   1316   0.000000 133.141784
   1846   0.000000 128.557686
    920   0.000000 148.451366
    340   0.000000  58.168884
   1752   0.000000 110.462885
   1134   0.000000 172.471440
   2738   0.000000  71.937399
   1119   0.000000 125.326265
    220   0.000000  43.387138
   1854   0.000000  52.725635
   3200   0.000000  76.432231
   1729   0.000000 108.919279
   1926   0.000000 119.135399
   2014   0.000000 167.655286
     41   0.000000  45.300171
    309   0.000000  53.105564
    505   0.000000  49.324494
   2163   0.000000  49.237127
     27   0.000000 175.144871
   1272   0.000000  49.097162
    653   0.000000  61.637126
   3220   0.000000 149.557113
    133   0.000000 151.414792
   2130   0.000000 126.727143
   2401   0.000000  63.683974
   1672   0.000000 105.099659
   2519   0.000000 150.316554
   2241   0.000000  65.560887
   1188   0.000000  60.464150
   2342   0.000000  66.741532
    582   0.000000 149.608872
   2075   0.000000  56.644710
   2142   0.000000 146.415918
   2042   0.000000  60.293209
   2324   0.000000  56.460658
   1137   0.000000  44.576273
   2871   0.000000  77.203025
   2767   0.000000  64.941721
    335   0.000000  51.106278
    125   0.000000  51.485752
    418   0.000000 100.544598
    987   0.000000 108.387533
    678   0.000000  98.469136
   3229   0.000000 145.496054
   2590   0.000000  79.560783
    321   0.000000  60.995755
    824   0.000000 179.538099
   2048   0.000000  59.557740
   1297   0.000000  61.274614
   2434   0.000000 129.125432
   2102   0.000000  62.285852
   1631   0.000000 118.516207
    228   0.000000 116.654652
   2139   0.000000 132.872870
   2239   0.000000 119.135497
    467   0.000000 146.368793
   2502   0.000000  54.443157
   2846   0.000000 140.890791
   1693   0.000000 100.358105
   2760   0.000000  66.595717
    453   0.000000  54.082541
   2415   0.000000  64.233637
   1630   0.000000 178.167485
   2145   0.000000  63.946682
   1787   0.000000 115.589929
    832   0.000000  54.779188
   1798   0.000000 160.768652
   2217   0.000000 121.773633
     43   0.000000 117.922663
   1398   0.000000  69.108022
   1283   0.000000 122.264845
   3022   0.000000  77.496582
    914   0.000000 176.355697
     28   0.000000  67.464776
    234   0.000000  63.232988
   1810   0.000000 151.387673
   1412   0.000000 168.612756
   1905   0.000000 177.897173
   1056   0.000000 152.516312
   1849   0.000000 173.705162
   2864   0.000000  80.669045
   3136   0.000000  65.980207
    515   0.000000  55.818016
   2810   0.000000 166.285779
   2374   0.000000 123.096964
   3161   0.000000 163.212100
   3118   0.000000 149.293252
   1078   0.000000 106.834022
    318   0.000000  43.762481
   1578   0.000000  54.954105
    139   0.000000  44.094047
   2084   0.000000 122.361288
   1314   0.000000 114.848874
    828   0.000000  60.696991
   1429   0.000000 150.255102
     12   0.000000  51.083762
    886   0.000000  98.905788
    769   0.000000 155.796278
   2487   0.000000 135.678391
    528   0.000000  42.374116
   2889   0.000000  65.695645
   1914   0.000000  58.633435
   2353   0.000000 142.259173
    532   0.000000 114.086296
   3094   0.000000 135.082392
   1040   0.000000 128.512583
   3010   0.000000  74.958457
   1247   0.000000 131.778914
   2547   0.000000 124.178155
    902   0.000000  95.050084
   1686   0.000000  45.423274
   1538   0.000000  92.795947
    634   0.000000 127.548148
   1580   0.000000 129.029943
   1486   0.000000 100.178827
   1317   0.000000  52.787910
   1754   0.000000  51.953497
   2486   0.000000 106.256250
   2685   0.000000 162.634025
    108   0.000000  52.389258
   1774   0.000000  63.292913
   1097   0.000000 108.939388
   3070   0.000000  59.435412
   2214   0.000000 168.578899
   2924   0.000000  70.886133
   1328   0.000000 100.139948
   3082   0.000000 157.788233
    664   0.000000 150.997950
   1827   0.000000 118.096085
   1663   0.000000  64.073141
    391   0.000000  47.926473
   1717   0.000000 175.819580
   1647   0.000000  58.382698
   2881   0.000000  76.467034
   2891   0.000000 154.455535
   2608   0.000000 127.283509
   1403   0.000000 131.547715
   1894   0.000000 143.758258
   1890   0.000000  53.169135
     60   0.000000  47.850854
   2654   0.000000  75.242995
   1577   0.000000  53.795094
   3041   0.000000 149.211396
   1865   0.000000 100.410603
   2914   0.000000 123.881813
    949   0.000000 152.480460
   2398   0.000000  64.145180
    551   0.000000  52.474767
   1831   0.000000  60.333805
    415   0.000000 102.540237
   1495   0.000000 179.566383
    993   0.000000 103.510018
   1785   0.000000 106.794929
    692   0.000000  45.012036
   2144   0.000000  64.719092
   2602   0.000000  70.317172
   1492   0.000000 135.871114
   2700   0.000000  70.126562
   2337   0.000000 130.337197
   2753   0.000000 133.045725
   2838   0.000000 157.694783
   1396   0.000000 173.930394
   1816   0.000000 108.881606
     75   0.000000  41.741924
    157   0.000000  55.985693
   1105   0.000000 106.256300
   1722   0.000000 126.147502
    929   0.000000  89.010416
   2149   0.000000  57.280296
   2182   0.000000 173.689493
    706   0.000000  60.162024
   1554   0.000000  63.248647
   1611   0.000000  52.184359
   1640   0.000000 121.100469
   2389   0.000000  62.571915
    933   0.000000 162.476622
   1698   0.000000  98.337800
    168   0.000000 139.938439
   1025   0.000000 130.863073
   1231   0.000000 161.133142
   1877   0.000000 129.939432
   1667   0.000000 106.038889
   1639   0.000000  61.449192
   3055   0.000000 144.581936
    297   0.000000  50.710074
   2193   0.000000 170.527614
   2979   0.000000  78.867251
   1597   0.000000 171.981472
   2991   0.000000 130.604467
   2631   0.000000 138.296692
   1986   0.000000  78.159273
   1528   0.000000 125.981193
   1719   0.000000 173.666591
   2684   0.000000  82.712741
   2515   0.000000 152.177450
   1991   0.000000  77.100608
   2170   0.000000  49.587688
   1228   0.000000 116.077962
      8   0.000000 142.529713
    510   0.000000  48.278266
   2931   0.000000 136.316131
   1885   0.000000 111.593496
   2064   0.000000 119.464126
   1113   0.000000  54.955002
    645   0.000000  71.291090
   1582   0.000000  62.948723
    186   0.000000  89.529668
    283   0.000000  54.983143
   1642   0.000000  64.011753
   2559   0.000000  63.206068
   2664   0.000000  68.478446
   2627   0.000000 142.028377
   3167   0.000000  87.817808
    488   0.000000  51.998509
   1561   0.000000 125.788971
   3061   0.000000  75.139874
   1623   0.000000  57.834580
   1149   0.000000  89.940370
    411   0.000000  48.977043
   1269   0.000000  98.537429
   3203   0.000000  68.232735
    910   0.000000  96.563292
   2633   0.000000  71.194276
   2827   0.000000  61.456391
   2751   0.000000  67.309633
     30   0.000000  94.622532
   2845   0.000000  69.892043
   2913   0.000000  60.565745
   3135   0.000000  70.719988
   1279   0.000000 107.203572
   2195   0.000000  67.989977
   3224   0.000000 141.106603
   3157   0.000000 117.194301
    606   0.000000 104.099497
   1924   0.000000  63.280758
   1274   0.000000 105.497439
   2984   0.000000  64.683317
    695   0.000000 138.866495
    132   0.000000  57.293256
   2577   0.000000 129.549150
   1694   0.000000 150.603259
   1981   0.000000 148.955700
   1323   0.000000  51.255372
    853   0.000000 163.885542
   2181   0.000000 115.785919
    512   0.000000 166.124655
   2851   0.000000 144.009164
    156   0.000000  49.196095
    667   0.000000  49.573813
    913   0.000000  41.663848
   1852   0.000000  57.737153
    476   0.000000  47.933643
   2783   0.000000 141.970235
   2452   0.000000  59.524114
    368   0.000000 125.404896
   2816   0.000000 146.841732
    122   0.000000 113.005409
   2274   0.000000 168.171350
   1695   0.000000 157.586345
   1375   0.000000  59.113447
   1499   0.000000  57.151427
   1241   0.000000  60.810589
    728   0.000000 107.436972
   1518   0.000000  54.425546
    854   0.000000  94.091038
   2988   0.000000 114.284252
   3114   0.000000  74.103912
   1556   0.000000 118.749223
   2246   0.000000 109.197248
   2131   0.000000  64.322434
   1687   0.000000 105.257910
   1433   0.000000 154.170810
   1452   0.000000  68.270626
   2026   0.000000 115.390937
   2041   0.000000 121.103565
   1768   0.000000 166.171466
   1406   0.000000 127.819288
   1359   0.000000  59.683961
   2535   0.000000  46.388555
   2419   0.000000  51.908096
   2109   0.000000 138.579046
   1921   0.000000 173.384176
   2072   0.000000 121.555582
   1098   0.000000  57.464342
     23   0.000000  58.357734
      9   0.000000  93.379910
   2277   0.000000  57.006589
   1536   0.000000 115.998661
   2621   0.000000  55.424550
    603   0.000000 162.046075
    932   0.000000  68.183283
   1032   0.000000  51.994990
   3027   0.000000  75.727394
   2369   0.000000 118.799748
    230   0.000000 116.774862
   1660   0.000000 169.327487
    585   0.000000 108.419523
    312   0.000000 134.077733
    686   0.000000 110.446934
   1902   0.000000 119.915550
   2220   0.000000  66.815876
   2511   0.000000  59.235034
    145   0.000000  52.222737
   2756   0.000000 149.209717
   1862   0.000000 130.404295
    602   0.000000  46.333232
    870   0.000000 104.733781
   1410   0.000000 174.639446
   1563   0.000000  52.213159
   1439   0.000000  46.488195
    780   0.000000 159.647942
   1331   0.000000  61.039350
   1475   0.000000  47.966963
   1650   0.000000 114.669563
   1388   0.000000  58.042836
   2418   0.000000 105.624346
   1512   0.000000 124.374417
   1904   0.000000  62.996482
   3067   0.000000 118.221663
   1558   0.000000  63.769882
    117   0.000000 102.174883
     44   0.000000  62.895784
   2993   0.000000 171.891908
   2503   0.000000 124.142734
   2258   0.000000  65.028815
    398   0.000000 101.741265
   2092   0.000000 165.766248
   1603   0.000000 117.953970
   1941   0.000000 107.449851
   1164   0.000000  52.933524
    262   0.000000  64.060370
    995   0.000000  98.756432
    113   0.000000  90.396178
   2558   0.000000 176.414776
   1379   0.000000 119.607875
   1166   0.000000 131.223705
   2834   0.000000  65.280422
   2886   0.000000 154.802997
   1957   0.000000 125.862425
    785   0.000000  49.584148
   1163   0.000000 175.842771
   1265   0.000000 105.161837
   1268   0.000000 154.258999
   3043   0.000000  80.758741
    448   0.000000 158.610893
    801   0.000000  63.530707
   3125   0.000000 143.620164
   3174   0.000000 142.056956
   1933   0.000000  63.590856
   2289   0.000000 122.764623
   2250   0.000000 122.383271
   2589   0.000000  67.287473
   1457   0.000000  71.037138
   1736   0.000000 157.240065
   2412   0.000000 169.578826
   2731   0.000000  69.845508
   1278   0.000000  47.239916
    727   0.000000 139.180942
   1916   0.000000 111.642001
   2252   0.000000  53.962866
   2269   0.000000 128.289004
   2322   0.000000 114.795216
   1349   0.000000  76.964980
   2358   0.000000  79.153021
   1649   0.000000 130.058364
    815   0.000000  57.729358
   1543   0.000000  51.908206
   1287   0.000000  63.339626
   1214   0.000000  64.804073
   1017   0.000000  48.388797
   2890   0.000000 139.489711
   1524   0.000000 100.782864
   1995   0.000000  66.459874
   1936   0.000000  61.390318
   1522   0.000000 133.235943
   2986   0.000000 122.186942
   1636   0.000000  59.636744
   2552   0.000000  53.615484
    549   0.000000 163.942942
    856   0.000000  51.714974
   1844   0.000000 123.489238
   1564   0.000000 127.148858
   2348   0.000000  75.975248
   1539   0.000000 143.161250
   3057   0.000000 152.257513
    895   0.000000 155.796108
    702   0.000000  40.420172
   2266   0.000000  68.657286
   1609   0.000000 173.718157
   1143   0.000000 150.002058
   1591   0.000000  57.682732
   3204   0.000000 143.078206
   1602   0.000000  57.439426
   2616   0.000000  58.325275
    889   0.000000  98.691133
   1085   0.000000  50.475910
   3143   0.000000  80.408579
    402   0.000000 101.825958
    837   0.000000  91.187598
   1110   0.000000 118.173110
   2429   0.000000 148.003062
    241   0.000000  98.413056
   2893   0.000000  75.000341
   1158   0.000000 102.149252
   1725   0.000000  60.185907
     21   0.000000 109.640968
   2024   0.000000 162.984293
   3146   0.000000 150.251506
   2792   0.000000 143.704542
    247   0.000000  51.955484
   1519   0.000000 135.210742
    380   0.000000  45.509987
    857   0.000000 153.738394
   1950   0.000000  56.956839
     52   0.000000 165.285884
   1927   0.000000 123.335066
   2971   0.000000  78.428537
    143   0.000000  54.545958
     81   0.000000 106.452471
   1711   0.000000 109.156627
   3126   0.000000 149.609284
    100   0.000000 111.693453
    207   0.000000  98.521388
    818   0.000000 117.273677
   3181   0.000000 145.755056
   2990   0.000000  56.780627
   2151   0.000000  72.168696
    939   0.000000 173.866010
   2290   0.000000  65.914857
   2382   0.000000 172.727860
   3072   0.000000 172.570092
   1855   0.000000 114.276227
   1720   0.000000  57.876841
   2952   0.000000 173.894096
    491   0.000000  64.174507
   1212   0.000000 105.172375
     34   0.000000 162.087308
   2306   0.000000 129.453284
    516   0.000000 140.947858
    535   0.000000  52.588060
   2031   0.000000 119.856482
   1488   0.000000 123.283338
   2826   0.000000 154.528944
   2696   0.000000  65.221315
    498   0.000000 150.732870
   2430   0.000000  69.659459
     25   0.000000 139.554958
   2365   0.000000 151.725240
   2150   0.000000 139.095561
   1599   0.000000  70.064558
   2081   0.000000 157.291436
   1096   0.000000  55.727625
   1793   0.000000 148.046931
    219   0.000000  62.066883
   2586   0.000000  63.934341
   3132   0.000000  68.985060
     76   0.000000 111.009772
   1974   0.000000 115.451961
   1955   0.000000  57.434614
    553   0.000000 112.905084
   2366   0.000000 129.618006
   2485   0.000000 118.065359
    779   0.000000  57.284441
   3064   0.000000 172.422182
   1092   0.000000 124.914851
   2462   0.000000 124.042183
   1732   0.000000  59.066205
   2395   0.000000 126.800897
   2086   0.000000 130.107552
   1222   0.000000  57.715154
    774   0.000000 150.258349
   1802   0.000000  51.382778
   2196   0.000000 124.695197
    253   0.000000 151.633657
   3069   0.000000 128.643657
   2951   0.000000  61.412213
   3182   0.000000 140.342326
   1033   0.000000 179.492427
    705   0.000000 121.887581
   1362   0.000000 120.047743
    888   0.000000 150.501898
    327   0.000000  55.509186
    454   0.000000  53.796451
   2438   0.000000 137.469789
    466   0.000000  57.691959
   3088   0.000000 139.399481
   1989   0.000000 138.280244
    209   0.000000  46.061406
    462   0.000000  99.644402
   1598   0.000000 130.579102
    254   0.000000 104.099565
    562   0.000000 101.306904
   2870   0.000000 145.151732
   1277   0.000000 154.443488
    875   0.000000 140.228400
   1347   0.000000 137.441165
   1665   0.000000 110.381931
    744   0.000000 119.039776
    655   0.000000 118.964958
   2529   0.000000 176.384986
   1211   0.000000  53.536966
   1674   0.000000  53.973689
   2812   0.000000 143.436374
   2983   0.000000  65.921150
   2498   0.000000  68.680114
   1132   0.000000  49.374032
   1460   0.000000 136.554940
    487   0.000000  90.981379
   2504   0.000000 177.641695
   1891   0.000000  97.798362
   2164   0.000000  98.824815
   1407   0.000000  66.864854
    174   0.000000 111.811729
    764   0.000000 100.901776
    808   0.000000  50.787456
   1959   0.000000 176.702961
   2632   0.000000  67.102416
    983   0.000000 156.481838
     98   0.000000  49.475991
   1381   0.000000 115.591779
   2103   0.000000 128.270118
   1426   0.000000 157.635458
    540   0.000000 152.711209
   1912   0.000000  62.187278
     18   0.000000  90.178078
   3127   0.000000  66.449900
    811   0.000000 176.967659
   1252   0.000000  57.648564
   1513   0.000000  67.690398
    971   0.000000  56.823734
    676   0.000000  48.997190
   1183   0.000000 172.671831
   2442   0.000000 101.855319
   3221   0.000000 151.474626
   1565   0.000000 178.002130
   1131   0.000000  59.990269
    735   0.000000 160.934446
   2307   0.000000 116.957916
   2932   0.000000  74.758420
    809   0.000000  46.122534
    804   0.000000 150.098938
   2056   0.000000  53.692203
   1549   0.000000  90.470993
   1702   0.000000  45.535344
   2624   0.000000  76.584820
    897   0.000000 155.865722
   2771   0.000000  70.200062
   2528   0.000000  66.101978
   1570   0.000000 169.288529
   1567   0.000000 129.053541
   1361   0.000000 121.650005
   2730   0.000000  73.826442
   1117   0.000000 136.766202
   1828   0.000000  53.822538
   2723   0.000000  72.518492
   1421   0.000000  53.383742
   1480   0.000000  56.423589
   2123   0.000000 166.817205
    288   0.000000 111.150797
   2563   0.000000  51.039441
    707   0.000000 114.644005
   1332   0.000000 168.674844
     56   0.000000 110.259005
   1416   0.000000 171.684764
   1167   0.000000  47.508967
   2867   0.000000 142.166476
   3054   0.000000  75.554343
   3163   0.000000  94.936209
   2281   0.000000  58.855342
   2762   0.000000 150.698334
   3101   0.000000  67.966907
    866   0.000000 165.061083
   2561   0.000000 108.119328
   1909   0.000000 119.008049
   1350   0.000000 149.439620
   1226   0.000000  60.439703
   1832   0.000000 111.584817
   1972   0.000000  54.695594
    930   0.000000  48.572662
   1305   0.000000 133.469539
     77   0.000000  76.347805
   3066   0.000000  59.287501
   3092   0.000000  68.274671
   2647   0.000000  53.367654
    986   0.000000  52.136031
    289   0.000000 161.407059
   1444   0.000000 111.641882
    542   0.000000 130.191016
    924   0.000000 171.712307
   1394   0.000000 115.695935
   2134   0.000000  51.269670
    442   0.000000 149.577122
   3044   0.000000 163.769531
   1820   0.000000 174.010977
    552   0.000000  52.302314
    723   0.000000  57.062334
   1727   0.000000 175.975657
   1371   0.000000 172.618454
    587   0.000000  96.322667
   1956   0.000000 121.398068
   1336   0.000000 159.132432
   3189   0.000000  76.263771
    471   0.000000 155.939248
    636   0.000000  58.500588
   2615   0.000000 113.749826
   2268   0.000000  66.729844
   3140   0.000000 142.203072
    955   0.000000 151.556004
   2336   0.000000  52.066134
   1418   0.000000  57.882426
   2811   0.000000  68.578778
   2797   0.000000  73.596474
   2406   0.000000  62.437670
   1180   0.000000 133.319183
   2111   0.000000 132.472885
   2020   0.000000 111.148138
   2819   0.000000 133.391358
    141   0.000000 145.177354
   1191   0.000000 123.790547
   1366   0.000000  67.195075
   2283   0.000000 116.618102
   1998   0.000000  62.749833
    599   0.000000  46.974630
   1850   0.000000 110.462788
   2080   0.000000  64.763009
    633   0.000000  61.137045
    518   0.000000 157.182864
    892   0.000000 110.806969
    153   0.000000 162.754388
   2173   0.000000 129.011453
    142   0.000000 159.075037
   2917   0.000000 149.543710
   2409   0.000000 117.670730
   1931   0.000000 133.366864
    255   0.000000  95.752846
    431   0.000000 109.831834
   2029   0.000000  61.584089
    734   0.000000  85.683468
     63   0.000000 146.227412
   1669   0.000000 126.381840
   3222   0.000000  73.397343
    641   0.000000  55.877807
    598   0.000000 104.646062
   1491   0.000000  71.514286
   2940   0.000000 135.689712
   3008   0.000000  98.542596
   1677   0.000000 153.072354
   2961   0.000000 112.809440
   1875   0.000000 112.654930
    284   0.000000  56.167654
    224   0.000000 169.918279
   2672   0.000000 145.950419
   2490   0.000000 131.272417
   1205   0.000000 161.880244
   1306   0.000000 165.596371
    435   0.000000  57.166807
   2033   0.000000  59.331988
    846   0.000000 156.916492
   1376   0.000000 109.725115
    673   0.000000 150.863383
    925   0.000000  37.020458
      1   0.000000 114.313745
   2004   0.000000 176.877951
   1464   0.000000  65.517803
    285   0.000000 106.423916
    775   0.000000 110.063795
   3086   0.000000 145.760412
    110   0.000000 153.941438
   1016   0.000000  92.550760
   3169   0.000000 135.516348
   2461   0.000000 127.589208
    136   0.000000 151.291952
   2551   0.000000 123.866929
   1049   0.000000 102.280807
   1236   0.000000 121.373520
   2078   0.000000  69.159763
   2188   0.000000 160.345729
   2315   0.000000  55.127407
   2736   0.000000 143.671950
   2634   0.000000 120.567430
   1993   0.000000 136.346570
   3205   0.000000 165.397355
   2403   0.000000 111.351236
   2316   0.000000 129.662579
   1318   0.000000 112.009341
    668   0.000000 150.286760
   1691   0.000000  47.696046
    263   0.000000 171.111691
   1929   0.000000  56.882997
   2053   0.000000  61.337636
    879   0.000000  96.915633
   2928   0.000000 146.221294
   3098   0.000000  74.240091
   2916   0.000000 147.140222
    490   0.000000 152.845605
   2999   0.000000 123.823183
   2802   0.000000  72.116787
   2439   0.000000 120.674891
   2939   0.000000  79.726225
   1038   0.000000  42.152000
   1116   0.000000  58.877627
   2796   0.000000 145.713261
    135   0.000000  50.331486
    596   0.000000  57.124867
   3113   0.000000 149.407915
    328   0.000000 146.412825
    646   0.000000 172.616480
   2027   0.000000 175.915430
     89   0.000000  53.818763
   1939   0.000000 117.376398
   2007   0.000000  58.366412
   1195   0.000000 128.634432
   1304   0.000000 144.763170
   1340   0.000000  95.608781
   2204   0.000000 117.727547
   1360   0.000000  60.273425
   2267   0.000000 179.822046
    638   0.000000 114.378396
   1545   0.000000  49.835236
   2231   0.000000 116.735558
   3012   0.000000 177.200685
   3152   0.000000 176.505358
   3083   0.000000  74.635601
    766   0.000000  93.892260
   2248   0.000000 172.829821
   1103   0.000000  60.073239
    612   0.000000 111.920975
    493   0.000000 142.979888
   2532   0.000000 110.283008
   1830   0.000000 102.079045
    940   0.000000  48.236887
    192   0.000000 117.342263
   1507   0.000000 125.496911
   1895   0.000000  48.501863
   1541   0.000000 115.095307
   1300   0.000000  58.732105
    688   0.000000  53.434287
   1062   0.000000  47.924369
    322   0.000000 156.994327
   1190   0.000000 179.201745
   2507   0.000000  53.498961
    776   0.000000 151.157489
    718   0.000000  50.374638
   1004   0.000000 111.958723
     71   0.000000  92.735686
    208   0.000000 141.908525
   1625   0.000000 123.139181
   1834   0.000000 159.841325
    772   0.000000 103.585463
   1064   0.000000 113.935893
   1735   0.000000  52.287054
   2574   0.000000 118.354245
   3001   0.000000 144.826329
    990   0.000000  96.278585
    583   0.000000 155.257810
   1070   0.000000 146.843483
   2583   0.000000 121.699795
    194   0.000000 150.758355
    103   0.000000  59.304195
   2001   0.000000 118.511539
   1749   0.000000  98.363146
   1483   0.000000 154.086336
   2302   0.000000 117.049340
   2291   0.000000  58.882999
   1958   0.000000  63.963455
    203   0.000000  91.899382
   2351   0.000000 151.059689
   1225   0.000000  59.552496
   2219   0.000000  60.476946
    972   0.000000  50.462463
   1569   0.000000  68.490613
    279   0.000000 164.243260
   2601   0.000000 162.399319
   2749   0.000000 145.054191
   1893   0.000000  57.826266
   2754   0.000000  77.744558
   2124   0.000000 130.778086
     78   0.000000 172.642422
    196   0.000000  53.870928
    611   0.000000  54.467668
   2282   0.000000 177.467041
    495   0.000000 115.261670
   3084   0.000000  78.287587
   2025   0.000000 104.130381
   3023   0.000000 135.386159
   2071   0.000000 178.200292
   1344   0.000000  66.476546
    419   0.000000  50.276084
   1021   0.000000 155.447938
   2678   0.000000  66.469322
    759   0.000000 102.154141
   1422   0.000000 108.957831
   3016   0.000000 135.232366
   2840   0.000000  61.163879
    124   0.000000  95.579799
   2493   0.000000 160.795812
   2212   0.000000 132.154075
    642   0.000000 127.168897
   3155   0.000000 106.825031
   2201   0.000000 179.514061
   2947   0.000000  59.189573
   2660   0.000000 151.345968
   1428   0.000000 155.255438
    965   0.000000  50.318432
   1144   0.000000  53.011917
   1352   0.000000 178.969201
    777   0.000000 103.407572
   1197   0.000000 117.077600
    198   0.000000 145.770310
   1940   0.000000 131.166326
   3188   0.000000  59.089864
   2722   0.000000  69.167557
   2579   0.000000  54.331151
   2610   0.000000  70.496502
     11   0.000000  52.351635
    485   0.000000  44.080833
   1047   0.000000  51.955430
   1292   0.000000  54.495899
   1368   0.000000 179.299917
   1977   0.000000  68.826017
    351   0.000000 137.668692
   1397   0.000000  62.439693
   1903   0.000000 119.263737
    699   0.000000 149.578887
   2550   0.000000 177.482413
   3177   0.000000  64.112542
   2340   0.000000 108.146920
   1124   0.000000 128.326940
   1651   0.000000 111.489855
   1742   0.000000  55.475279
   3160   0.000000  88.068623
   3099   0.000000 153.938538
    333   0.000000 157.154548
   3000   0.000000 128.632309
   1856   0.000000  64.313820
    691   0.000000  85.432208
   1945   0.000000  51.463771
   1458   0.000000 162.549172
   1042   0.000000  97.631348
    426   0.000000 150.241010
   1901   0.000000  58.889124
   2361   0.000000 142.684181
   1833   0.000000 116.904735
    661   0.000000 107.712481
    956   0.000000 101.237572
    373   0.000000  83.171199
   1766   0.000000  64.548082
   1356   0.000000  60.363782
   3017   0.000000 150.547608
   1077   0.000000 146.558584
   1658   0.000000  63.288598
   2298   0.000000 126.207402
   1657   0.000000 128.363813
    116   0.000000 143.321366
    225   0.000000  94.234602
    268   0.000000  69.725967
   2844   0.000000  58.889810
   2157   0.000000 107.911499
   2863   0.000000 134.179224
   3111   0.000000 145.726807
   1073   0.000000  58.561573
   3095   0.000000  64.705886
    470   0.000000 102.764005
   1239   0.000000  75.619642
   1043   0.000000  42.137186
   2522   0.000000  77.097958
    749   0.000000 124.165401
   2711   0.000000  71.989709
   1697   0.000000  54.822761
   2697   0.000000 131.680770
    916   0.000000 165.303350
   1099   0.000000 166.256956
   2326   0.000000 115.965723
    231   0.000000 118.677792
    461   0.000000  56.294846
   1248   0.000000  57.730633
   1448   0.000000 176.898496
   1472   0.000000 108.635454
   1808   0.000000  52.385680
   2162   0.000000  49.777735
   2077   0.000000  68.785792
    315   0.000000  80.972169
   2012   0.000000 115.361060
   2227   0.000000 123.733193
   2837   0.000000 142.357851
     72   0.000000  79.906736
   2604   0.000000  89.904714
   3185   0.000000 160.002469
   2061   0.000000 120.961241
    836   0.000000 137.867035
     20   0.000000  41.028275
    601   0.000000  54.335097
    382   0.000000 107.438441
   2096   0.000000  50.975003
   1708   0.000000 148.079788
   1249   0.000000 175.806043
    931   0.000000 173.530235
   2329   0.000000 121.277754
   2638   0.000000 179.850874
   1063   0.000000  47.281102
   1750   0.000000 171.996915
   1918   0.000000 128.194244
   2869   0.000000  69.032348
   2199   0.000000 109.028787
   3149   0.000000  69.680326
   1923   0.000000  54.248778
    128   0.000000 154.793439
    851   0.000000 116.142480
   1655   0.000000  55.202989
   2189   0.000000 103.640508
     37   0.000000  43.475910
   2450   0.000000 177.197691
    504   0.000000 104.588803
   2524   0.000000 173.864933
   2310   0.000000 113.588800
   1065   0.000000 150.858635
   2704   0.000000  77.808709
    860   0.000000 104.254865
    999   0.000000  48.184281
   3218   0.000000  76.725125
   2132   0.000000 177.996813
   1551   0.000000 167.785564
   3093   0.000000 138.945977
    277   0.000000 108.075606
    290   0.000000 106.990342
   2271   0.000000 111.164760
   2791   0.000000  62.904237
   1130   0.000000 109.364302
   1860   0.000000 117.487943
   2441   0.000000  60.652140
   1093   0.000000 138.015418
   1146   0.000000 142.952286
   1046   0.000000 158.905859
   1707   0.000000  52.265459
   3166   0.000000  66.702298
   1074   0.000000  48.272449
    789   0.000000  49.194568
    517   0.000000  61.881261
   2114   0.000000  64.324978
   1859   0.000000 128.555763
   1532   0.000000 133.282534
   1468   0.000000  53.323604
    292   0.000000  50.256262
    412   0.000000 160.202275
   1089   0.000000  68.828193
   1108   0.000000 173.128111
   1745   0.000000  49.477732
   2106   0.000000 155.865064
    252   0.000000 156.448321
   3121   0.000000  68.666989
   1654   0.000000  60.069083
   1337   0.000000 105.258787
   2682   0.000000 133.020387
    529   0.000000 113.021357
   1644   0.000000 126.115694
    630   0.000000 147.098316
   2115   0.000000 154.960045
   1581   0.000000 108.749199
   1100   0.000000  51.475046
   1432   0.000000  99.681350
   1057   0.000000 147.814361
   1058   0.000000  50.325377
   1022   0.000000 140.939557
   1826   0.000000  57.762279
   2128   0.000000 169.690994
   3107   0.000000 159.113141
    313   0.000000 127.044293
   2284   0.000000 118.584041
    238   0.000000  59.508947
    422   0.000000  49.856457
   2789   0.000000  77.775162
    323   0.000000 112.102033
   1389   0.000000 173.896801
    413   0.000000  98.833501
   2067   0.000000  64.833794
    123   0.000000  55.712153
   2261   0.000000 112.787055
    341   0.000000  56.945266
   2087   0.000000 125.200066
   2094   0.000000  68.698567
   2618   0.000000  60.393697
   2192   0.000000 132.767165
    926   0.000000  57.110064
   1309   0.000000  61.261844
   1490   0.000000  57.150278
   1883   0.000000 165.283658
   2894   0.000000  88.566294
   1290   0.000000 125.067360
   2655   0.000000 149.114638
   2934   0.000000 154.484645
     42   0.000000 134.757579
    595   0.000000 150.979295
   3096   0.000000  67.115485
    950   0.000000  54.557668
   1784   0.000000 137.615142
   1728   0.000000 121.527258
   1462   0.000000 126.413691
   2180   0.000000  64.254848
    904   0.000000  76.662223
    905   0.000000  50.060554
   2706   0.000000 149.785357
    286   0.000000 161.973485
   2766   0.000000 150.659935
    190   0.000000  63.471335
    754   0.000000 156.944083
   1799   0.000000 108.382972
    482   0.000000  95.167996
   1704   0.000000  51.810396
   2965   0.000000 124.159371
    119   0.000000 153.669304
    163   0.000000 109.460028
   2962   0.000000  83.770857
   1770   0.000000  65.296315
   3138   0.000000 139.171085
   1473   0.000000 153.701799
   1757   0.000000  64.270847
   2744   0.000000 148.197910
    479   0.000000  45.331459
    364   0.000000 155.579218
    455   0.000000  45.664609
    358   0.000000  96.709230
   1294   0.000000 178.584244
    409   0.000000  53.563193
    713   0.000000 124.512171
    882   0.000000 103.939229
   2091   0.000000 104.692382
   2057   0.000000  60.580559
   3172   0.000000 154.520106
   1415   0.000000 130.432810
   2948   0.000000 114.704523
   2471   0.000000  52.866318
   1001   0.000000 160.523564
   1036   0.000000  44.223397
   2585   0.000000 114.831882
   2908   0.000000 127.671977
    726   0.000000 100.374175
   3219   0.000000  72.831989
   2648   0.000000 114.244018
   1443   0.000000 131.778347
    671   0.000000  51.817624
    805   0.000000 132.690764
   1044   0.000000 133.856069
   1401   0.000000 116.961584
   2716   0.000000 128.782053
   2237   0.000000  60.118062
   2254   0.000000 176.346137
   2208   0.000000  61.786514
    607   0.000000 100.668329
   2718   0.000000  65.276079
   1595   0.000000 114.046428
   2567   0.000000 114.245509
   2815   0.000000  74.857596
   2453   0.000000  60.562780
   2017   0.000000  70.434467
   2565   0.000000 171.325396
   3122   0.000000  75.273827
    440   0.000000  48.448594
     73   0.000000 118.089729
   1307   0.000000  50.747497
   2058   0.000000 133.837056
   2572   0.000000  57.079887
   2817   0.000000 151.751046
    546   0.000000  40.614435
   2224   0.000000  61.296687
   1242   0.000000 112.075313
    317   0.000000  46.072124
    357   0.000000  90.012212
    697   0.000000 117.321281
   1404   0.000000 173.243788
    227   0.000000  61.330058
    793   0.000000 119.207270
   2416   0.000000 117.949887
   2712   0.000000 137.265788
   2884   0.000000 142.174326
   2675   0.000000 138.160536
   2800   0.000000 153.868448
    927   0.000000 125.293348
    187   0.000000  49.179100
   1823   0.000000 119.333356
   2270   0.000000 123.171364
    670   0.000000 160.507359
   2368   0.000000  65.244623
   2896   0.000000 130.544124
    111   0.000000  52.925188
    975   0.000000  99.705859
   2978   0.000000  63.579690
   1023   0.000000  51.414189
   2879   0.000000  60.836098
   1372   0.000000 113.505008
   2659   0.000000  73.919411
   3108   0.000000  72.489248
    969   0.000000 143.771949
   3051   0.000000  63.310175
    521   0.000000 114.808748
   1420   0.000000  53.189063
   2557   0.000000 108.879442
    189   0.000000  42.720282
    338   0.000000 113.095452
   2677   0.000000  67.493285
   2769   0.000000 130.601165
   2906   0.000000 168.565694
   3128   0.000000 143.940816
   1504   0.000000  54.624597
   3184   0.000000  70.312016
   2330   0.000000  62.809085
   2726   0.000000 151.274055
    915   0.000000 146.623845
   1932   0.000000 165.242818
   2172   0.000000  64.756605
   1066   0.000000  95.205472
   1971   0.000000  59.486396
     47   0.000000  47.363221
    154   0.000000 106.768695
   1104   0.000000 113.054872
   2980   0.000000  66.310184
    314   0.000000  37.209687
   2569   0.000000  56.823152
   1215   0.000000 177.928277
    715   0.000000  61.725557
    408   0.000000 153.101756
   2958   0.000000  53.292309
   3028   0.000000  65.947859
   1270   0.000000  50.961911
   2734   0.000000 145.392991
   1675   0.000000 159.231599
     92   0.000000 103.353368
   1438   0.000000  51.003723
   1987   0.000000  68.393549
    166   0.000000 166.827496
   1747   0.000000 157.615408
   1555   0.000000  63.900211
    680   0.000000  49.471946
   1664   0.000000  62.308700
   2035   0.000000 173.663330
   2313   0.000000 111.588065
    374   0.000000 128.134250
   2256   0.000000 177.815870
   2688   0.000000  79.921284
    158   0.000000  46.743292
   2785   0.000000 161.879717
   2823   0.000000  81.578501
   1411   0.000000  60.954434
    305   0.000000 166.751749
   2885   0.000000 131.402938
     22   0.000000 125.822510
   1840   0.000000  83.253940
   2148   0.000000 175.959844
   1177   0.000000  65.575082
    613   0.000000 152.416736
   1102   0.000000 108.792614
   2210   0.000000  59.267026
   2909   0.000000 129.683340
   2028   0.000000 124.752582
   1151   0.000000 162.444288
    826   0.000000 115.476179
   2022   0.000000  51.836155
   2969   0.000000 132.900666
    303   0.000000 173.148836
   2318   0.000000  68.271680
   1035   0.000000  45.636358
   1821   0.000000  54.677621
   1619   0.000000  60.755134
   1756   0.000000  61.534030
   2054   0.000000 175.610398
   2147   0.000000 109.032979
   2334   0.000000 128.213901
   1562   0.000000 107.062171
   2346   0.000000  54.774352
   2705   0.000000 151.037739
   2799   0.000000 134.014765
    679   0.000000  98.203071
   2325   0.000000 176.186115
   1633   0.000000 179.669364
   2592   0.000000 144.804053
    574   0.000000  50.401289
    992   0.000000  48.094305
     90   0.000000  49.489872
    628   0.000000  44.497916
   2039   0.000000 112.789980
   2381   0.000000 177.808747
   2607   0.000000  65.915403
   2653   0.000000  73.891868
   1037   0.000000  84.289186
   1857   0.000000  64.871281
   2575   0.000000 172.685396
    918   0.000000  88.446565
   2981   0.000000 145.177435
    946   0.000000 137.897103
   2279   0.000000  56.441521
   2770   0.000000 143.680621
   2257   0.000000 109.372674
   2887   0.000000  65.707292
   3046   0.000000 132.920294
   2645   0.000000 114.876233
   1656   0.000000 115.272072
   2517   0.000000 145.981170
    127   0.000000  97.500183
    506   0.000000 104.416804
    959   0.000000 151.654934
   1086   0.000000  99.252988
    637   0.000000  56.936412
   2304   0.000000  58.454850
   1014   0.000000 101.412001
   1579   0.000000 122.220858
   2213   0.000000 118.026520
   2355   0.000000  66.681138
   1330   0.000000  46.965772
    597   0.000000 154.685608
   1341   0.000000  70.964619
   1369   0.000000 130.088415
   2858   0.000000 136.835468
   1494   0.000000  64.356829
   1615   0.000000 172.003062
   2922   0.000000  76.867891
   1938   0.000000 168.840169
    299   0.000000  52.773431
    362   0.000000 121.249584
    394   0.000000 103.907738
   2843   0.000000 118.804846
    273   0.000000  50.657982
   2287   0.000000  57.762761
   1071   0.000000  96.367573
    683   0.000000 110.686571
   1147   0.000000  98.688512
    251   0.000000 147.708330
   1627   0.000000  59.947312
   2458   0.000000  66.035107
   1156   0.000000  54.640285
   1910   0.000000 120.820713
    951   0.000000 104.876099
   3210   0.000000 125.272915
    765   0.000000 110.311462
   3141   0.000000  67.545422
   2907   0.000000  65.921011
   1232   0.000000 138.056269
    170   0.000000 165.152824
   1299   0.000000 177.519913
   1714   0.000000  63.494340
   1741   0.000000 102.140129
    544   0.000000 108.062058
   2580   0.000000 176.030947
   2717   0.000000  63.505974
   2470   0.000000  55.502291
   2098   0.000000 112.048869
   1605   0.000000 107.948546
    180   0.000000  84.245643
    354   0.000000  47.656481
    550   0.000000  94.750154
    575   0.000000  51.570316
    465   0.000000 143.249189
   2447   0.000000  57.569990
   2225   0.000000 128.273689
   1789   0.000000  50.771386
   2101   0.000000  75.864818
   2761   0.000000 141.108005
    301   0.000000 127.076712
    215   0.000000 122.296181
   1363   0.000000  61.376580
    167   0.000000  96.221482
   2707   0.000000 136.985613
   2788   0.000000 135.216046
    530   0.000000  83.744517
   2597   0.000000  65.243271
    753   0.000000 177.319656
   2108   0.000000  65.984266
   1758   0.000000 120.043418
   2612   0.000000 173.685251
   1126   0.000000 171.682791
   2775   0.000000 141.220779
   2683   0.000000 136.109441
    242   0.000000  46.457572
   2644   0.000000 130.879749
   2165   0.000000  45.743650
   1520   0.000000 113.509639
   3176   0.000000 155.545132
   2010   0.000000 119.681436
   1431   0.000000 104.251715
    348   0.000000  55.487802
   1114   0.000000  81.811200
    105   0.000000  94.365109
   2234   0.000000  56.617496
   1544   0.000000 142.379200
   3162   0.000000 170.079686
   2198   0.000000  56.705221
   2378   0.000000  57.227900
   1521   0.000000 111.279619
   1907   0.000000  60.374614
    725   0.000000  53.497474
   1772   0.000000 164.916296
   2426   0.000000  69.389731
   3110   0.000000 138.969190
    356   0.000000  44.979875
   2549   0.000000 111.954917
   2300   0.000000 175.198108
   2966   0.000000 153.458098
   2505   0.000000  62.119444
    733   0.000000  46.876701
   2605   0.000000 142.811777
   1441   0.000000 151.981378
    693   0.000000  51.132564
    365   0.000000 110.616166
   1817   0.000000  65.129371
   1814   0.000000 176.319502
   1325   0.000000 161.638908
    813   0.000000 121.808741
   2531   0.000000  58.742884
   1383   0.000000  57.390914
   2352   0.000000  75.324979
    911   0.000000  87.909132
   3194   0.000000 133.291518
   3190   0.000000  85.800816
    456   0.000000 166.956613
    873   0.000000  50.170034
   1851   0.000000 172.013380
   2051   0.000000 115.029839
   1179   0.000000  54.008986
   3030   0.000000 141.675253
   2866   0.000000  72.681792
   1141   0.000000  56.706004
    316   0.000000  89.834606
   2481   0.000000  70.843618
   2929   0.000000 147.754024
   2135   0.000000 113.674378
   1133   0.000000  61.162011
   1842   0.000000  64.497382
    138   0.000000 107.624741
      5   0.000000  57.024411
    403   0.000000 108.064743
   2862   0.000000 149.701392
    451   0.000000 167.242703
   1606   0.000000  60.514544
   2457   0.000000  51.465095
   2733   0.000000  70.935059
   2786   0.000000  84.104555
   2155   0.000000 118.679549
    199   0.000000 138.708768
    822   0.000000  56.867412
   2588   0.000000 172.597337
   1200   0.000000  65.682988
   2667   0.000000  77.421291
    658   0.000000  66.210223
   2360   0.000000  72.572219
    489   0.000000 167.260178
    976   0.000000 153.007944
    739   0.000000 179.229757
   3116   0.000000  75.304003
   1243   0.000000 172.885901
    336   0.000000 104.894630
   3156   0.000000  64.661344
   1127   0.000000  67.573910
    917   0.000000  46.245284
   1003   0.000000 151.604323
   1794   0.000000 159.567390
   1738   0.000000 107.762333
   2390   0.000000 170.627188
   2658   0.000000 135.642367
   2413   0.000000 169.857983
   1601   0.000000  64.032925
   3173   0.000000  63.422939
   1534   0.000000 166.938204
   2833   0.000000 126.444301
    185   0.000000 103.050028
    721   0.000000 150.748813
   2692   0.000000  79.488612
    201   0.000000  46.809386
   2119   0.000000 136.892048
   2853   0.000000  76.927167
   1744   0.000000 152.906860
   3109   0.000000  71.622895
   2960   0.000000 177.919833
   1928   0.000000 174.412532
   2725   0.000000 136.289539
    278   0.000000  53.092463
    519   0.000000 161.446735
   1764   0.000000 175.685734
    112   0.000000 157.081001
    205   0.000000 170.469377
    160   0.000000 102.728986
   3183   0.000000  70.030310
   2477   0.000000 162.383692
     83   0.000000  46.390768
   1803   0.000000 103.768458
   1913   0.000000 177.739781
    131   0.000000  47.168697
    439   0.000000 161.974284
   3105   0.000000  79.614940
    684   0.000000  59.554007
    852   0.000000 112.170568
   2874   0.000000 133.117035
   1451   0.000000 116.579770
   3078   0.000000 143.900716
    468   0.000000  57.432546
    474   0.000000 160.455965
   2849   0.000000 130.913783
   2994   0.000000 171.682734
   2850   0.000000  59.915035
   1168   0.000000  83.714738
    159   0.000000 148.049517
   2356   0.000000  66.934194
   1220   0.000000 125.767180
    291   0.000000 157.700416
   1354   0.000000  59.380793
   2954   0.000000 126.588774
     14   0.000000 109.097192
   1160   0.000000 120.194182
   1456   0.000000 100.836829
    536   0.000000  93.202495
    406   0.000000 157.041787
   2286   0.000000 123.677618
   2856   0.000000  67.081997
   2946   0.000000  64.363991
   2516   0.000000 130.724592
   1138   0.000000  88.840047
    989   0.000000  52.625700
    958   0.000000 110.422273
   1892   0.000000  49.296499
   1888   0.000000 147.630894
   2038   0.000000  65.813246
   3075   0.000000  83.136217
   1962   0.000000 126.447470
    526   0.000000  41.370401
    308   0.000000 112.276082
   1474   0.000000  96.229009
   1576   0.000000 176.015952
   2975   0.000000 131.468318
   3025   0.000000  69.438300
   3040   0.000000  73.262663
    867   0.000000  54.563747
    577   0.000000 151.713028
    134   0.000000 164.491161
   1566   0.000000  54.849012
   1771   0.000000 128.589227
   1760   0.000000  61.786833
   2125   0.000000 115.547535
   2008   0.000000 115.485415
    302   0.000000 143.088682
   2243   0.000000  62.858595
   1266   0.000000  54.199926
   3050   0.000000 120.558695
   2245   0.000000 120.795269
    730   0.000000  88.815485
   1446   0.000000  59.114198
   3013   0.000000  72.132436
   1425   0.000000  50.383165
    310   0.000000 179.850143
    617   0.000000 146.408156
    643   0.000000 171.314807
   1809   0.000000  99.001993
    218   0.000000 156.301485
   2073   0.000000  54.740839
   2741   0.000000  73.689528
   2021   0.000000  52.294226
   3225   0.000000  78.077282
   1175   0.000000 116.606424
   2540   0.000000  66.848058
   2635   0.000000  65.272893
   2976   0.000000 129.889874
   1979   0.000000 143.939085
   1718   0.000000  62.653162
   2455   0.000000 120.086894
   2230   0.000000 176.148746
    501   0.000000 102.716127
   1560   0.000000 114.232248
   2548   0.000000  58.339433
   2795   0.000000  80.271974
   1435   0.000000  48.677627
   2156   0.000000 156.567116
    126   0.000000 163.336894
    906   0.000000 137.969685
   2392   0.000000  62.045171
   2402   0.000000 169.733176
   2687   0.000000  61.256534
   2451   0.000000 125.732596
   3062   0.000000  64.723847
   1584   0.000000  72.122706
   1867   0.000000  52.616661
    239   0.000000 126.570487
   3196   0.000000  74.204554
   1935   0.000000 109.256738
   1320   0.000000 151.395320
   1011   0.000000  54.035938
   1308   0.000000 103.535407
   1715   0.000000 122.839069
   2484   0.000000  50.667263
    710   0.000000 128.331708
    947   0.000000 153.886329
   1788   0.000000 166.361315
   1876   0.000000 119.188837
   3145   0.000000 148.521780
    593   0.000000 152.304517
   1805   0.000000 110.222446
   1961   0.000000 127.230130
   3129   0.000000 139.705047
   3192   0.000000 162.064587
   1284   0.000000  56.319400
    622   0.000000 153.115595
   1866   0.000000 166.572956
   2708   0.000000  73.229030
   1187   0.000000 112.024648
   1517   0.000000  56.854073
   1152   0.000000 153.291938
    287   0.000000 147.316442
    823   0.000000  56.050077
    569   0.000000 157.637981
    748   0.000000 179.505475
   2060   0.000000 114.272762
   1170   0.000000 109.015315
    941   0.000000  51.402898
   1237   0.000000  51.512381
    353   0.000000  92.688818
   1629   0.000000 120.383323
   1271   0.000000 156.459350
   2417   0.000000  57.061398
    944   0.000000  40.437753
    784   0.000000  52.779354
    616   0.000000 156.138537
    698   0.000000 170.000941
    798   0.000000 106.093432
   2238   0.000000 117.752521
   2343   0.000000 121.515884
   2611   0.000000 130.890199
   1264   0.000000  53.245588
    260   0.000000 112.613497
    669   0.000000 101.289570
   1440   0.000000 105.493183
    343   0.000000 113.656686
   2944   0.000000 171.353373
   1847   0.000000 120.979527
     85   0.000000 154.011008
   2278   0.000000 164.981152
   2719   0.000000 154.542903
    524   0.000000 110.306639
   1009   0.000000 146.629277
   1873   0.000000  58.964768
    306   0.000000  66.203957
    787   0.000000  89.234660
   2141   0.000000  82.469236
    844   0.000000  52.661627
   3032   0.000000 141.847494
   1878   0.000000  64.776910
   2930   0.000000  66.024682
   1594   0.000000 172.386946
   2070   0.000000 127.058869
   3073   0.000000 132.963067
   3045   0.000000  75.671774
   3130   0.000000  85.863649
   2387   0.000000 124.924815
   1632   0.000000 120.693892
   2138   0.000000 163.180448
   2560   0.000000 165.405208
   1948   0.000000 119.746122
   2544   0.000000  63.395583
   2375   0.000000  54.711783
     51   0.000000 148.815600
    376   0.000000 138.476113
   2553   0.000000 179.079568
    486   0.000000 116.173016
   2495   0.000000  59.511760
   2582   0.000000  60.500731
   2216   0.000000 171.410491
   2790   0.000000 138.520296
   1345   0.000000 145.593855
   2822   0.000000 158.686714
    401   0.000000  51.877643
    771   0.000000 157.530835
    433   0.000000 158.280428
    492   0.000000  51.087163
   1029   0.000000  90.766540
    845   0.000000  49.361792
   2508   0.000000  62.023289
   1743   0.000000 153.838425
    591   0.000000 160.174287
   1182   0.000000  51.031342
   1509   0.000000 172.529696
   2049   0.000000 166.605204
   1786   0.000000  56.023543
   2713   0.000000  78.078612
   2953   0.000000  61.478381
   1101   0.000000  57.317568
   2059   0.000000 111.890182
    570   0.000000  55.666376
   2534   0.000000 124.844862
    248   0.000000 151.596196
    862   0.000000  60.327302
    387   0.000000 102.809129
   1045   0.000000 175.993255
   1869   0.000000  47.793941
   2095   0.000000  61.073865
   3071   0.000000 113.134681
   1150   0.000000  45.676596
   2410   0.000000  60.609332
    437   0.000000 105.615401
   1487   0.000000 165.202376
    977   0.000000  48.476414
   1479   0.000000 156.602417
   2992   0.000000  57.712799
    267   0.000000 124.827939
   1234   0.000000 163.006838
   2168   0.000000  99.014862
   1427   0.000000  55.574088
   2183   0.000000 179.959233
   1868   0.000000  66.162353
   1825   0.000000 112.829158
   3207   0.000000  69.329730
   1800   0.000000 100.229355
    543   0.000000  89.576581
    480   0.000000  91.538431
    751   0.000000  56.329124
   1612   0.000000 127.241804
    547   0.000000 105.923328
    499   0.000000  95.640560
    169   0.000000  53.341096
   1944   0.000000 172.847594
    724   0.000000 170.810340
   2892   0.000000 135.971142
   1880   0.000000 110.871730
    211   0.000000  60.229298
    311   0.000000  90.315251
   1165   0.000000 136.648262
   2288   0.000000 177.439383
   1050   0.000000 143.783300
   2359   0.000000 157.809775
   2479   0.000000 177.099868
   2941   0.000000  65.059664
   1186   0.000000  56.613451
    644   0.000000 117.394103
   1575   0.000000 170.407129
   2357   0.000000 138.162798
   1106   0.000000  58.099871
     61   0.000000  45.898516
    659   0.000000 175.163565
   2745   0.000000  63.210798
   1815   0.000000  63.490344
   2116   0.000000  74.802811
   2002   0.000000  58.288900
   2454   0.000000 112.027875
   2985   0.000000 123.633949
   2709   0.000000  81.149626
   1382   0.000000 124.108882
    614   0.000000 163.085348
   1310   0.000000  60.934090
   2129   0.000000  56.016615
   1864   0.000000 178.198237
   2019   0.000000 126.581240
   1296   0.000000  57.513194
    161   0.000000 155.964790
   2910   0.000000 102.644683
    430   0.000000  52.665027
   1260   0.000000 103.055146
   1263   0.000000  53.957984
    342   0.000000 165.386042
   1586   0.000000 173.830866
   2143   0.000000 128.665774
   1706   0.000000 154.573980
   2376   0.000000 175.955629
   1485   0.000000 148.440873
    701   0.000000  93.099832
    369   0.000000  96.118991
    720   0.000000 103.872112
     50   0.000000  96.337559
   2235   0.000000 179.253559
   1863   0.000000  64.241942
    235   0.000000 177.984710
   2480   0.000000  64.834773
   2499   0.000000 167.177152
   2668   0.000000 143.677465
   1334   0.000000  44.219436
   2576   0.000000  65.614809
   2475   0.000000  56.127442
    806   0.000000 176.521780
   2989   0.000000  57.398482
   2657   0.000000  75.222770
   1966   0.000000 106.322400
    223   0.000000  95.847119
   2443   0.000000  68.162606
   1684   0.000000  93.119321
   2651   0.000000  70.737709
   2380   0.000000 118.727729
   2187   0.000000 131.664294
   2740   0.000000 148.287917
   1723   0.000000 115.789750
    742   0.000000  63.975421
    631   0.000000 118.073456
    962   0.000000  97.922793
   2868   0.000000  76.119384
   1125   0.000000 122.308759
   2530   0.000000 129.996432
    923   0.000000 134.691849
   1751   0.000000  61.945405
    625   0.000000  95.662288
   1202   0.000000 171.858453
   2370   0.000000  59.718730
   2859   0.000000  69.501520
   2880   0.000000  66.821401
    863   0.000000 114.891049
   1240   0.000000 111.494457
   2083   0.000000 137.945556
    807   0.000000  86.568231
   2556   0.000000  67.535334
    385   0.000000  50.931486
    629   0.000000 102.600400
   2831   0.000000 152.361727
     53   0.000000  48.486705
   2546   0.000000 172.737488
   1529   0.000000  67.080603
   2476   0.000000  61.937917
   2527   0.000000  61.290205
   2900   0.000000 163.566635
    182   0.000000  53.234066
   1716   0.000000 121.371181
   1255   0.000000 126.545392
   2646   0.000000 167.611672
    647   0.000000  59.428787
   1662   0.000000 168.347589
   1812   0.000000 121.641881
   1949   0.000000  55.782667
    878   0.000000  53.586265
   2897   0.000000  65.889241
   3014   0.000000  78.415172
    729   0.000000 135.692186
     55   0.000000 156.157521
   1020   0.000000 115.026694
   1391   0.000000  62.256503
   1984   0.000000 147.234899
   1780   0.000000  69.354687
   2154   0.000000  51.752684
   1348   0.000000  72.474641
   2388   0.000000 124.617086
   1773   0.000000 101.623384
   2967   0.000000  73.641236
    514   0.000000  57.203341
    572   0.000000 101.050280
   3112   0.000000  64.979941
   1048   0.000000  95.858931
   2202   0.000000  64.978907
    991   0.000000 151.382131
   2179   0.000000  61.406718
    101   0.000000 143.614805
   1610   0.000000 134.097484
   1235   0.000000  60.562931
    548   0.000000 141.171587
   1377   0.000000  60.494429
   1115   0.000000 164.356171
    414   0.000000 156.915166
    656   0.000000 174.824819
   2703   0.000000  71.976648
   1450   0.000000 124.370812
   2982   0.000000 178.967569
   2758   0.000000 149.193674
   2555   0.000000  70.200126
   1510   0.000000 138.707914
   2943   0.000000 172.049046
   1701   0.000000 154.691972
   2089   0.000000 176.175069
     66   0.000000  52.117027
   3091   0.000000 135.952001
   1978   0.000000  69.724744
    270   0.000000 175.485921
     95   0.000000 152.843240
   1533   0.000000 110.718805
    648   0.000000  59.536170
   2482   0.000000  55.588987
   2543   0.000000  60.782571
   2877   0.000000 149.679940
   3178   0.000000 134.424558
      6   0.000000 166.665380
   3226   0.000000 128.268703
    296   0.000000  40.892525
   2205   0.000000  67.175168
   3131   0.000000 151.843856
   2408   0.000000  72.471287
   2446   0.000000 109.035086
   1288   0.000000 118.076130
    428   0.000000 101.792416
   1681   0.000000 164.008006
   1882   0.000000  57.181569
   2488   0.000000  67.931771
   2690   0.000000 148.830617
    129   0.000000  53.914609
    294   0.000000  91.148787
    375   0.000000  37.661212
   1466   0.000000 104.492663
   1051   0.000000  48.577829
   2573   0.000000 171.188918
   2763   0.000000 134.789379
   2794   0.000000  75.616058
   1673   0.000000 107.649080
   2520   0.000000 140.800234
   1006   0.000000  57.922785
   2100   0.000000 122.415946
   2848   0.000000  70.998748
   2973   0.000000 162.221498
    849   0.000000 139.602655
   2636   0.000000 126.781472
   1482   0.000000 105.734837
   1617   0.000000 115.764407
   1622   0.000000  55.009273
   2045   0.000000 178.603226
   1734   0.000000  44.955242
    814   0.000000  65.758664
   2483   0.000000 173.654346
   1911   0.000000  56.919068
   1387   0.000000  58.200865
   1737   0.000000  49.853074
   1964   0.000000  66.961074
    410   0.000000 149.521641
   1380   0.000000 170.219543
   2178   0.000000 119.310291
   2127   0.000000 107.286285
   3011   0.000000 107.840857
    899   0.000000 136.713932
   1267   0.000000  51.297513
    441   0.000000  95.543087
   1583   0.000000 129.805438
   1010   0.000000 142.548571
   1083   0.000000 147.063212
    758   0.000000 107.587510
   1250   0.000000  56.818900
   3216   0.000000  92.777430
    463   0.000000 171.419352
   2437   0.000000  60.022752
    781   0.000000  98.778716
     54   0.000000 151.364438
   2040   0.000000  59.612044
    850   0.000000  37.579236
   2136   0.000000  80.711212
    175   0.000000 110.708563
    859   0.000000 102.023419
   1461   0.000000 109.225567
   3211   0.000000  67.613270
   1395   0.000000 128.060364
   1500   0.000000 115.378269
   1992   0.000000 143.560483
    834   0.000000 145.797170
   1123   0.000000  60.753029
   1276   0.000000 152.737355
    708   0.000000 107.156121
   1129   0.000000 127.564180
    346   0.000000 115.114150
   2606   0.000000  61.368106
   2847   0.000000 159.194174
   2500   0.000000 113.678191
    881   0.000000  51.926494
    835   0.000000 109.388760
   1906   0.000000 178.804674
    508   0.000000  55.092310
   2427   0.000000 141.462563
   2593   0.000000 146.848256
   2367   0.000000 177.184306
   2510   0.000000 115.522251
    945   0.000000  97.459349
    790   0.000000  41.484743
   1613   0.000000 116.993789
   2854   0.000000  76.735845
   1469   0.000000 165.388551
    381   0.000000  90.473038
    359   0.000000 141.741567
    830   0.000000  98.726651
    891   0.000000  50.352963
   1908   0.000000 121.885606
   2350   0.000000 142.656387
   2545   0.000000 119.122004
    361   0.000000  59.460227
    377   0.000000 176.560836
   1346   0.000000  73.119215
   1572   0.000000 115.453024
    937   0.000000  94.293339
    425   0.000000 152.592183
    280   0.000000 145.500478
   1229   0.000000 100.570211
    665   0.000000  52.794879
    367   0.000000 179.290190
   2825   0.000000 128.362844
   3047   0.000000  83.010790
   1781   0.000000  68.260455
   2656   0.000000 149.134863
     57   0.000000 103.513584
   1342   0.000000 143.441525
   2693   0.000000  70.491562
   2294   0.000000 179.472616
   1079   0.000000  55.626856
   2320   0.000000 171.255874
   3186   0.000000 123.733759
     62   0.000000 100.328896
   2404   0.000000 127.829154
    494   0.000000 101.758443
    162   0.000000 101.306225
   2773   0.000000  60.401103
    432   0.000000  52.142450
   1525   0.000000  66.155340
   1189   0.000000  64.913777
   2752   0.000000 143.496693
   2857   0.000000 139.254991
   2491   0.000000 126.790253
    782   0.000000 146.528633
   2345   0.000000 179.719965
   1829   0.000000 174.667014
   2260   0.000000  72.811456
   2373   0.000000  64.015946
   1118   0.000000  64.573235
   2912   0.000000 165.072047
   3147   0.000000  68.113201
    980   0.000000 152.119269
   2423   0.000000  78.613331
     35   0.000000 108.455285
    177   0.000000 163.942629
    240   0.000000 173.920566
   1027   0.000000 177.141937
   2841   0.000000 100.304364
   3230   0.000000  60.849931
    966   0.000000 104.920946
   2232   0.000000  62.518000
    436   0.000000 104.807477
    618   0.000000  50.745868
   1176   0.000000 121.753087
   2211   0.000000 177.293546
   1455   0.000000  52.527684
   1635   0.000000  58.568895
    579   0.000000 101.971605
   2649   0.000000 145.980704
    743   0.000000 118.704923
   1159   0.000000  55.648589
   2018   0.000000 129.288379
   3103   0.000000 121.271919
   1059   0.000000 164.261270
   2903   0.000000  60.298035
   1861   0.000000 129.185102
   2435   0.000000  68.367109
   2787   0.000000  59.599987
    942   0.000000  91.840651
   1329   0.000000  48.643010
   3148   0.000000 141.635294
   3080   0.000000  66.330580
   2422   0.000000  53.716250
   2671   0.000000 147.580259
   1818   0.000000  54.203985
    447   0.000000  59.149832
    511   0.000000 104.243394
    222   0.000000 146.694584
   1238   0.000000 136.430231
   3089   0.000000  71.124810
    114   0.000000  49.249695
   1112   0.000000 140.688828
    651   0.000000 113.187693
   3217   0.000000 117.665457
    703   0.000000 171.506268
    477   0.000000  43.604788
    963   0.000000  47.604361
   1039   0.000000 141.854745
    689   0.000000 104.566851
   2836   0.000000  81.193972
    472   0.000000 115.124506
   3150   0.000000  66.300341
    564   0.000000 143.754744
   1795   0.000000  49.044937
    957   0.000000 103.523050
    719   0.000000 120.435702
    810   0.000000  96.909990
   1841   0.000000  64.060304
    370   0.000000  51.155940
   1178   0.000000 175.649475
    694   0.000000 168.453845
   2578   0.000000  57.853514
   2926   0.000000  69.328073
   3137   0.000000 154.848708
    997   0.000000  50.884318
    366   0.000000 158.910795
    623   0.000000 108.617680
   1253   0.000000 118.987143
   2186   0.000000  66.887106
    176   0.000000 152.340414
   1954   0.000000  59.963929
   3158   0.000000  52.532957
    797   0.000000 121.215804
    151   0.000000  45.973241
    922   0.000000  39.836327
   1221   0.000000 173.793116
   1804   0.000000  47.619215
   2757   0.000000  61.596609
    560   0.000000 166.353646
   2996   0.000000 114.179109
   2691   0.000000 145.948067
   1508   0.000000  76.734520
   3195   0.000000 150.916737
    193   0.000000  50.272546
    816   0.000000  62.370889
    672   0.000000 160.139428
    652   0.000000 127.847349
   1313   0.000000  72.207695
     32   0.000000  49.322361
   3077   0.000000  77.570136
   2942   0.000000 123.586963
   1985   0.000000  74.214341
    202   0.000000 167.614808
   1465   0.000000 179.737295
   2323   0.000000 127.353227
   1209   0.000000 122.458560
    107   0.000000  51.766554
     88   0.000000  50.657641
   2063   0.000000 174.204965
   2191   0.000000  64.777188
    502   0.000000 152.040621
   2074   0.000000 111.385549
     79   0.000000  97.048409
    421   0.000000 150.820682
   2161   0.000000  95.521385
   1934   0.000000  57.792967
   1618   0.000000  63.261832
   1753   0.000000 123.732238
   1024   0.000000  89.525368
   2032   0.000000  53.806848
   1917   0.000000  61.742175
   2776   0.000000  64.489999
    657   0.000000  56.198607
   1811   0.000000 129.476512
   1983   0.000000 138.550760
     91   0.000000 102.694238
   3002   0.000000  50.731044
    576   0.000000 103.687495
   2082   0.000000  57.598280
   1324   0.000000 102.752310
    685   0.000000  57.767274
    329   0.000000  57.586267
   1414   0.000000  57.541266
   2919   0.000000  71.046140
   1769   0.000000 129.787389
   3153   0.000000 135.980667
    197   0.000000 113.743880
    928   0.000000 140.413314
   2832   0.000000  75.860916
   2456   0.000000 171.551989
    907   0.000000  56.726965
   1988   0.000000 155.259881
   1721   0.000000 112.325240
   2640   0.000000 112.651098
   2637   0.000000  65.606856
   2494   0.000000  58.858482
     59   0.000000  98.376558
   1968   0.000000 165.808796
   2765   0.000000  78.738900
   2950   0.000000 174.221653
   2385   0.000000 112.708866
     65   0.000000 170.206756
   3087   0.000000 152.923188
    556   0.000000  53.448561
    838   0.000000 112.744205
   1614   0.000000  63.979972
   2222   0.000000 128.112563
   2400   0.000000 175.496416
    662   0.000000  58.138668
     86   0.000000 156.499120
   2805   0.000000 167.322522
   2904   0.000000 162.942718
   2169   0.000000 148.602550
   2472   0.000000 108.368609
   2742   0.000000 137.719180
   2526   0.000000 109.970479
   1604   0.000000  55.764187
    795   0.000000 102.363501
   1311   0.000000 175.782964
   2228   0.000000  57.013249
   2050   0.000000  52.332442
   2432   0.000000 140.193833
    581   0.000000 101.311739
   1782   0.000000 176.149616
   1839   0.000000  48.256507
   2694   0.000000 135.712877
   3139   0.000000 137.388349
   2206   0.000000 115.507032
   1087   0.000000  48.777078
   1218   0.000000 122.519227
    869   0.000000 158.425199
   2666   0.000000  66.256174
    137   0.000000 107.197905
   2681   0.000000 147.058330
   1797   0.000000  50.546205
   2333   0.000000 173.582018
   2420   0.000000 162.685744
   1060   0.000000 100.533258
   1399   0.000000 124.316520
   1489   0.000000  58.926510
   1140   0.000000 164.321346
   2251   0.000000  63.632573
   2133   0.000000  62.404708
   2046   0.000000 132.057160
    592   0.000000  51.636188
    885   0.000000  56.890320
   2036   0.000000 173.083189
      7   0.000000 166.386526
   3170   0.000000  69.963547
   3097   0.000000  85.971631
   2938   0.000000 144.584062
   1233   0.000000  49.057830
   1696   0.000000  54.333867
    481   0.000000 148.658989
   2918   0.000000 134.362208
   1072   0.000000  47.590495
   2030   0.000000  60.524493
    608   0.000000 107.710978
    427   0.000000  47.784706
    894   0.000000 159.145138
   3227   0.000000  67.418772
   2159   0.000000 107.329989
   1068   0.000000 157.529662
   2209   0.000000 112.338893
   2467   0.000000 117.353740
   2911   0.000000  86.574477
    349   0.000000 152.197032
   3033   0.000000  72.170907
   2920   0.000000  63.316068
   2643   0.000000  61.508579
    483   0.000000  57.677610
   3006   0.000000 107.544508
   2362   0.000000  64.027427
   1005   0.000000 105.492706
   1303   0.000000  96.449022
   2728   0.000000 144.954898
   2798   0.000000 153.641382
   3007   0.000000 173.501054
   1026   0.000000 132.918540
   1585   0.000000 115.490348
   1244   0.000000 115.379197
    264   0.000000 133.786337
    788   0.000000 151.558070
   2878   0.000000 127.657499
   1638   0.000000 179.262787
   2860   0.000000 153.663012
   1692   0.000000  94.164007
    615   0.000000  49.816336
   2312   0.000000  59.667809
    799   0.000000  55.305976
    249   0.000000  99.678174
   1835   0.000000 171.918623
   1648   0.000000 169.872553
   1637   0.000000 121.085936
   2680   0.000000  71.763853
   1173   0.000000 117.665502
   2203   0.000000 124.245932
   1154   0.000000  65.553897
   1596   0.000000  58.340518
   1776   0.000000 163.010765
   1409   0.000000 121.450382
   2308   0.000000 172.183290
    981   0.000000  44.833072
   2737   0.000000 144.390651
   2076   0.000000 133.548801
    626   0.000000  51.164373
    750   0.000000  58.514943
   3209   0.000000  91.034338
    250   0.000000  52.144081
   2394   0.000000 129.181877
   2303   0.000000  55.133950
    106   0.000000 104.691743
   1013   0.000000 169.062632
   3003   0.000000 158.275552
   3208   0.000000 126.989375
    507   0.000000 152.695070
   2662   0.000000  73.924678
    407   0.000000  52.137532
    825   0.000000 123.488022
   1298   0.000000 153.962217
   1600   0.000000 116.217285
    246   0.000000  49.295274
   2622   0.000000 167.049753
    819   0.000000 119.238301
    800   0.000000 152.215966
   1343   0.000000 144.083834
    884   0.000000  53.916649
    256   0.000000  51.918022
   1838   0.000000 131.510448
   3059   0.000000 132.602613
   1230   0.000000  62.436627
   1194   0.000000  58.876770
    396   0.000000  52.030095
    261   0.000000 160.147589
   2240   0.000000 123.111982
   2509   0.000000 112.733995
   1069   0.000000  50.695640
   1246   0.000000 172.198097
   1643   0.000000 122.394451
     36   0.000000 116.787137
    868   0.000000 115.037819
   1139   0.000000 111.309430
   3115   0.000000 136.602836
    768   0.000000  47.219373
   1853   0.000000  61.550593
   1710   0.000000 104.075855
   2448   0.000000 122.239529
      3   0.000000 103.156543
   1496   0.000000 116.076788
    558   0.000000  54.885471
   1053   0.000000 105.235210
   1054   0.000000  56.625053
   1471   0.000000 114.219492
   3018   0.000000 140.596513
    257   0.000000  99.452115
   2247   0.000000 128.419481
   2759   0.000000  84.102617
   1535   0.000000  50.939543
   2347   0.000000  75.084441
   1762   0.000000 125.804877
    640   0.000000 115.437000
   2249   0.000000  55.234382
   1731   0.000000  93.840656
   1775   0.000000 127.634548
    281   0.000000  53.897879
   2949   0.000000 120.667954
   2197   0.000000 177.018763
   2642   0.000000  59.283444
    988   0.000000 100.008144
   2469   0.000000 170.220058
   1142   0.000000 105.738284
   1213   0.000000  51.635410
   1546   0.000000  50.365303
   2803   0.000000  60.645357
   3068   0.000000  58.786251
   2047   0.000000 112.913001
   1339   0.000000 147.105720
   2003   0.000000  57.196515
   1946   0.000000 116.920768
   1653   0.000000  56.286866
   1688   0.000000 112.882037
    152   0.000000  55.332984
   1145   0.000000  54.603426
   2778   0.000000  77.480236
   3031   0.000000  76.477253
   1819   0.000000 167.033143
   1128   0.000000 176.938212
   1514   0.000000  67.520343
   2265   0.000000  54.054428
    796   0.000000  57.685096
   1953   0.000000 172.703436
   3117   0.000000  73.989249
   2305   0.000000  58.363425
   1120   0.000000 167.099825
   2264   0.000000 131.544082
   2055   0.000000 172.470741
    650   0.000000 115.627394
    265   0.000000  62.100623
   2122   0.000000  66.455652
   2449   0.000000  62.715415
   1293   0.000000 124.088345
    404   0.000000  54.501550
    212   0.000000  91.009235
   1896   0.000000 155.624628
   1848   0.000000  59.428934
   1430   0.000000 103.766907
    936   0.000000 116.420171
   2299   0.000000  61.609308
    874   0.000000  86.536982
    943   0.000000  46.056451
    298   0.000000  60.872754
    762   0.000000  54.228889
     17   0.000000 160.180954
   1364   0.000000 179.678831
   2097   0.000000 173.390949
   2218   0.000000  67.796743
    677   0.000000  49.205881
    178   0.000000 137.479708
   1542   0.000000 102.273510
   2617   0.000000  53.299928
   1227   0.000000 176.517666
   2034   0.000000 114.331341
   1652   0.000000 171.558938
    388   0.000000  97.722335
    919   0.000000 125.467023
   1724   0.000000  61.341351
     82   0.000000 159.656837
     84   0.000000 150.867172
    554   0.000000  58.019613
   1196   0.000000  55.411197
   2464   0.000000 110.873393
   1552   0.000000 127.018529
   2006   0.000000  61.315024
    565   0.000000 147.224922
   1453   0.000000 169.107454
    109   0.000000 164.912080
    900   0.000000  48.804800
    545   0.000000 148.676493
   2309   0.000000  58.594490
    276   0.000000  58.353086
    953   0.000000  56.789063
   3060   0.000000 139.863721
      4   0.000000 152.306346
   1493   0.000000 108.052097
    383   0.000000 154.839224
   2079   0.000000 168.852919
   2497   0.000000 101.937330
   1777   0.000000  59.374093
   2679   0.000000  64.345588
    450   0.000000 138.960846
   2641   0.000000  54.960574
   1970   0.000000 170.147555
    400   0.000000 153.703600
   2872   0.000000 166.046867
   2977   0.000000 151.242875
   2995   0.000000  57.503625
     46   0.000000  93.261737
   2321   0.000000  61.390899
   1224   0.000000  56.525466
   1965   0.000000 178.856936
    434   0.000000 154.625079
   1193   0.000000 114.287967
   1181   0.000000 121.640489
   1477   0.000000  97.662747
    324   0.000000  43.898875
   1608   0.000000 165.387973
    531   0.000000 163.234125
   1256   0.000000  56.022989
   1157   0.000000 174.136010
   3123   0.000000  77.170264
    792   0.000000  96.944485
   2743   0.000000 137.203701
   2117   0.000000  68.147907
   2383   0.000000  60.018995
    386   0.000000 155.364914
   3197   0.000000  74.484506
   1837   0.000000 139.824870
   2839   0.000000 141.141339
    214   0.000000 143.469217
   3026   0.000000  72.409194
   1975   0.000000 114.181990
    741   0.000000 120.304545
   1370   0.000000  59.692042
   2296   0.000000 116.743258
    438   0.000000 152.709894
    571   0.000000 149.075813
   2781   0.000000 141.298986
    584   0.000000 156.716656
    164   0.000000  56.118933
   1245   0.000000  68.814759
    812   0.000000 114.596770
    344   0.000000 149.634084
   2414   0.000000 133.080619
   2895   0.000000  69.573324
   2997   0.000000  73.092139
    274   0.000000 164.113039
   1052   0.000000 106.950430
    820   0.000000 123.594489
    700   0.000000  52.679660
   1994   0.000000  69.886695
   3065   0.000000 128.142406
   3009   0.000000  78.658089
    295   0.000000  91.602599
   2335   0.000000 106.840486
   2554   0.000000 113.385098
    865   0.000000 141.247499
   1624   0.000000 124.016966
    188   0.000000 143.206092
    675   0.000000 101.391436
    833   0.000000 167.523393
   1502   0.000000 179.878492
    258   0.000000  60.695475
     13   0.000000 100.233565
    589   0.000000 103.049421
    293   0.000000 141.858861
   2945   0.000000 106.989381
    952   0.000000  50.363279
   1295   0.000000 120.006719
   3034   0.000000 140.803925
   1333   0.000000 139.828218
    146   0.000000 154.951723
   1646   0.000000 178.681316
   2963   0.000000  69.687241
   1286   0.000000 117.835525
   2883   0.000000  78.335963
   1559   0.000000 169.081260
    325   0.000000  99.568281
   3214   0.000000  57.659645
   1666   0.000000 127.579270
    619   0.000000  95.243784
   2331   0.000000  58.468669
   2379   0.000000  59.081018
    829   0.000000  52.047214
   3056   0.000000 150.694217
   1192   0.000000  63.720655
   1506   0.000000  61.973394
   1505   0.000000 103.386987
   2936   0.000000  66.490489
    909   0.000000 133.583749
   1679   0.000000  51.125970
   1082   0.000000 162.460878
   2915   0.000000  78.497570
   2466   0.000000  58.007076
   3036   0.000000  69.984679
   1080   0.000000 106.102766
    469   0.000000 165.697564
   2921   0.000000 153.761112
   3124   0.000000  72.439020
   1204   0.000000 129.198162
   2674   0.000000  71.691214
   1540   0.000000  52.690257
   3164   0.000000  75.143477
    360   0.000000  45.032337
   3106   0.000000  86.623893
   1355   0.000000  58.921458
   1922   0.000000 120.163754
   2729   0.000000 144.761501
    712   0.000000 173.762271
    443   0.000000 102.482629
   2594   0.000000  82.846931
    674   0.000000 110.933547
    746   0.000000 116.794822
   2397   0.000000  64.426151
   3133   0.000000 134.431304
     45   0.000000 145.739778
   2663   0.000000 134.734620
    605   0.000000  47.521196
   1136   0.000000 117.868015
   2052   0.000000  72.499420
   2013   0.000000 133.490802
   2068   0.000000 119.574633
    179   0.000000  40.528686
   1947   0.000000 177.180736
   2933   0.000000  69.825642
   1645   0.000000  66.046611
   1392   0.000000  65.803860
   1447   0.000000  66.521734
     38   0.000000  45.981498
   2676   0.000000 133.962607
    737   0.000000 152.188852
   3079   0.000000  58.311051
   3199   0.000000 134.878710
   2110   0.000000  72.594780
   2570   0.000000 114.365766
    831   0.000000  54.609572
    522   0.000000  95.301602
   1434   0.000000 159.340996
    561   0.000000  88.869273
   1836   0.000000  56.570930
   3085   0.000000 145.964917
     29   0.000000 138.098442
   2113   0.000000 152.724304
   2873   0.000000  66.295634
   1291   0.000000  56.348396
    984   0.000000 150.892463
   2568   0.000000  57.285879
    259   0.000000  47.534093
    496   0.000000  57.226509
   1171   0.000000  66.634160
   2888   0.000000  73.794066
   3171   0.000000  72.093409
   3053   0.000000  76.703171
   1783   0.000000 125.378230
   1792   0.000000 101.730623
     64   0.000000 151.628432
   3076   0.000000  74.652016
    791   0.000000 160.692013
   1184   0.000000 124.184805
   2126   0.000000 125.986572
    827   0.000000 170.085751
   2088   0.000000  64.126200
   1806   0.000000  57.836767
    216   0.000000 151.238533
    635   0.000000  56.257058
    842   0.000000 143.452831
   2468   0.000000  61.851449
    864   0.000000  54.710517
   1169   0.000000 176.759416
   1285   0.000000  61.727734
   1898   0.000000 107.122765
     48   0.000000 166.409367
   2830   0.000000 144.014665
    982   0.000000 107.286197
    236   0.000000 118.475762
   3090   0.000000  67.677330
    624   0.000000 104.284004
   1378   0.000000  50.611668
   2319   0.000000 115.542205
   2755   0.000000  71.449116
   1824   0.000000 127.837486
   1588   0.000000 135.071429
   2902   0.000000  67.373943
   1801   0.000000 161.605225
   2842   0.000000 170.196407
    654   0.000000  56.989086
   2354   0.000000 133.615332
   1008   0.000000  57.103909
   2425   0.000000 150.416436
   1763   0.000000  58.509388
   1161   0.000000 108.582113
   1553   0.000000 170.962381
   1367   0.000000 120.186470
   1845   0.000000 122.234535
   1312   0.000000 122.995054
   1012   0.000000  49.997812
   1726   0.000000  54.448399
   2338   0.000000  72.133115
    475   0.000000  88.936247
   2221   0.000000 103.613748
   2207   0.000000  56.240007
   2431   0.000000  70.534374
    378   0.000000  92.966126
    331   0.000000  44.059096
    347   0.000000 107.217157
    714   0.000000  50.293857
   1778   0.000000  56.215836
   1659   0.000000  64.290672
   3206   0.000000  74.363017
    967   0.000000 155.239378
    243   0.000000 109.990748
   2255   0.000000 117.595439
   1476   0.000000  52.211864
   1879   0.000000 176.370406
   1870   0.000000 113.956295
    557   0.000000 158.225642
   3049   0.000000 146.320965
   2460   0.000000 176.908501
   2562   0.000000 137.771641
    204   0.000000 100.485810
    786   0.000000  47.749917
   2011   0.000000  63.056335
    736   0.000000  38.806767
    271   0.000000  55.101972
    998   0.000000 112.339283
   1980   0.000000  72.493540
    887   0.000000 105.228490
   1990   0.000000 146.552822
   2000   0.000000  62.083316
   2236   0.000000  62.993920
    663   0.000000 102.000760
   2226   0.000000 119.531249
   1424   0.000000  96.871360
    429   0.000000  54.697923
    681   0.000000 147.675017
   1358   0.000000 177.986212
   1530   0.000000 176.920736
   1682   0.000000 101.827987
   1976   0.000000 141.319557
   2584   0.000000  57.765454
   1088   0.000000  69.187226
    908   0.000000  91.724402
    970   0.000000  95.295534
   2200   0.000000  52.323566
   2727   0.000000  63.771047
    600   0.000000  93.854428
   2628   0.000000 151.510781
    594   0.000000  56.074791
   2695   0.000000 157.827668
    478   0.000000 136.869890
    960   0.000000 158.026634
   2411   0.000000 136.704924
   2701   0.000000 140.088081
   2652   0.000000  64.904658
   2898   0.000000  60.970800
   3021   0.000000 146.352462
   1969   0.000000  51.626806
   1217   0.000000 121.402810
    500   0.000000  47.362295
   1822   0.000000  58.151537
    304   0.000000 113.646186
    757   0.000000 148.827027
   2598   0.000000  65.061542
   1148   0.000000 107.615342
   1925   0.000000  66.452070
   1111   0.000000 105.060688
   2670   0.000000  78.457134
    994   0.000000 148.904285
   3052   0.000000  57.248520
    738   0.000000 113.382085
   2772   0.000000  85.718214
    876   0.000000  53.691418
    760   0.000000 148.121149
    563   0.000000 111.468174
   2861   0.000000  61.497431
     10   0.000000  57.289333
    855   0.000000  59.630677
    934   0.000000 146.120480
   2223   0.000000 170.429624
   1886   0.000000 163.072607
   2339   0.000000 162.921271
   2746   0.000000  74.598390
   2344   0.000000 124.945613
    690   0.000000 138.111868
    961   0.000000  46.733987
   2160   0.000000  57.742301
    588   0.000000  48.297134
    140   0.000000 101.083307
   1373   0.000000  62.893340
   2478   0.000000 121.510881
   1548   0.000000 152.108746
    371   0.000000 141.628978
    763   0.000000  49.356574
   2184   0.000000 122.055659
    770   0.000000  52.210816
   1685   0.000000  48.740732
   3100   0.000000 160.211722
   2177   0.000000  60.648942
   2428   0.000000  71.803104
   2768   0.000000 148.938962
    171   0.000000  57.367467
    213   0.000000  47.622098
   2686   0.000000 141.177818
   2835   0.000000  76.500811
    716   0.000000 123.468414
    839   0.000000 159.423643
   2332   0.000000  56.080785
   2152   0.000000 169.151756
    200   0.000000  53.676424
    121   0.000000 149.494409
   1374   0.000000 126.887117
   2927   0.000000 135.352755
   1996   0.000000 121.038733
   2465   0.000000 166.375684
   1730   0.000000 161.206333
   2514   0.000000  67.022317
   3035   0.000000 145.933412
   2801   0.000000  73.369408
    147   0.000000 103.742053
     33   0.000000 154.436783
   2166   0.000000 144.758512
   1678   0.000000 147.251261
   1997   0.000000 120.449728
   2735   0.000000  73.455592
    149   0.000000  92.716533
   3212   0.000000 143.692747
    392   0.000000 149.752431
   1621   0.000000 179.026239
    747   0.000000  60.524834
   3134   0.000000  68.451097
   1557   0.000000  62.019089
   1590   0.000000 110.882143
   2185   0.000000  57.903574
     24   0.000000  96.079049
    272   0.000000 109.011068
    578   0.000000 159.989838
   2121   0.000000  59.530920
   3187   0.000000  74.201654
   2474   0.000000 111.716428
   2974   0.000000  83.354247
    118   0.000000 112.522822
    586   0.000000  48.025533
   2262   0.000000  58.732626
   2405   0.000000  58.381940
   2099   0.000000 125.535185
   1408   0.000000  63.567956
   2721   0.000000  75.787340
   2314   0.000000 121.058708
    102   0.000000 163.460007
   1531   0.000000  59.779262
    459   0.000000 147.378777
     94   0.000000  53.204366
     96   0.000000 102.680357
     19   0.000000 150.669243
    393   0.000000 151.537127
    320   0.000000 158.946577
    682   0.000000 164.120858
   1018   0.000000  41.136571
   1207   0.000000  56.707869
   3020   0.000000  68.855880
   1353   0.000000 120.757373
   2998   0.000000  71.734190
   1351   0.000000 118.605419
   1571   0.000000  60.539330
    627   0.000000 161.737311
   1919   0.000000  57.393224
   2970   0.000000  54.472130
    898   0.000000 173.225514
   2699   0.000000 142.103210
   1887   0.000000  99.129031
    210   0.000000  48.173196
   1445   0.000000 159.951027
   2620   0.000000 132.556550
    580   0.000000  53.286205
   2875   0.000000  88.843842
   2925   0.000000  76.893221
   2105   0.000000 138.150670
    890   0.000000 105.512759
   1084   0.000000  98.286134
   1315   0.000000  62.060964
    803   0.000000 112.991072
    372   0.000000  55.304914
   1897   0.000000  45.959896
    704   0.000000  64.350147
   2501   0.000000 130.799558
   1759   0.000000 172.408290
   1459   0.000000  58.056509
   2809   0.000000  88.954668
    173   0.000000 110.601533
   1031   0.000000  96.218387
   2777   0.000000 144.496960
   2935   0.000000 148.925449
   2190   0.000000  51.316943
   2512   0.000000 174.757284
   3202   0.000000 148.689059
   2542   0.000000  57.018871
    355   0.000000  51.729356
   2489   0.000000  71.760657
   1203   0.000000 120.223043
    457   0.000000  99.461061
   3037   0.000000  68.633018
   1385   0.000000  58.305021
   3180   0.000000 143.932927
   2407   0.000000 120.819610
   1484   0.000000  48.262046
   2393   0.000000  64.755726
    948   0.000000  97.097266
   2987   0.000000 115.111281
   1671   0.000000  48.073232
   2714   0.000000 153.139335
     39   0.000000  88.776081
    339   0.000000 156.000908
   1357   0.000000 120.637208
   2665   0.000000 147.844089
   2923   0.000000 136.910815
   1593   0.000000  56.363696
   3063   0.000000  69.356155
    282   0.000000 104.607953
   3168   0.000000 130.125237
   1174   0.000000  67.744101
   3039   0.000000 142.155587
    847   0.000000  56.511803
   1122   0.000000 107.109555
    858   0.000000  52.539891
   1162   0.000000 167.703149
   1526   0.000000  49.843321
   2372   0.000000 111.939683
   1537   0.000000 164.930544
   1960   0.000000 112.739507
   2523   0.000000 120.033089
   1478   0.000000 155.135537
   2292   0.000000 113.557759
    843   0.000000 104.376601
   2104   0.000000 159.135102
   1259   0.000000 151.783017
   1668   0.000000  57.965658
   2273   0.000000  59.631718
   2433   0.000000  69.102680
    539   0.000000 166.674356
    566   0.000000  42.447840
   1206   0.000000 108.343279
   1280   0.000000 174.395529
    968   0.000000 156.529593
   2905   0.000000  63.762329
   2242   0.000000 174.758135
   2539   0.000000 168.973787
   1075   0.000000 114.188429
    172   0.000000 154.318490
   1219   0.000000 117.267650
     99   0.000000 104.476404
   1930   0.000000 117.529535
    332   0.000000  46.844544
   2748   0.000000 148.591292
   3024   0.000000 148.886447
   2311   0.000000 170.669612
   1574   0.000000  61.657930
   2957   0.000000  59.517130
   2062   0.000000  58.736166
   1746   0.000000  48.885414
    390   0.000000 158.369927
   3191   0.000000 140.907666
   3102   0.000000 131.821372
   1107   0.000000 165.133927
   2153   0.000000  66.926865
   2650   0.000000 140.127428
   3165   0.000000 157.781354
   1258   0.000000 170.490453
    307   0.000000 156.038563
   2276   0.000000  51.533042
    696   0.000000  98.446323
    460   0.000000 113.986806
   2821   0.000000  72.950442
   1261   0.000000 154.017057
    973   0.000000  59.698458
   2591   0.000000 150.134405
   2146   0.000000 111.871460
   2263   0.000000 174.401490
   2780   0.000000  74.282261
   2233   0.000000 179.729478
   1503   0.000000 117.905099
     31   0.000000 175.920060
   1761   0.000000 113.898902
   2964   0.000000 157.412093
   2639   0.000000 174.159677
   2016   0.000000 178.417395
   1185   0.000000 170.901418
    880   0.000000 152.277398
   3142   0.000000  74.089871
   2629   0.000000  70.192527
   2424   0.000000 139.924105
    509   0.000000 103.370576
    896   0.000000  48.338170
   1007   0.000000 161.956534
   2876   0.000000 143.498659
    445   0.000000 108.092871
   1937   0.000000  69.776009
   1587   0.000000 167.245839
   3119   0.000000 141.106009
    217   0.000000 107.851396
    464   0.000000  51.710759
     49   0.000000  55.026879
   2066   0.000000  62.225075
    761   0.000000 101.567389
    978   0.000000 159.404317
   1900   0.000000 158.415476
   2253   0.000000  58.750697
   2972   0.000000  67.888628
    233   0.000000 122.846446
   2750   0.000000  81.900084
   2140   0.000000 148.864990
   1223   0.000000 116.965170
   2496   0.000000 161.449090
   3104   0.000000 152.104187
   1030   0.000000  85.226715
    399   0.000000 156.432778
    821   0.000000 179.644566
   1915   0.000000 119.106346
    449   0.000000  54.010330
   1858   0.000000 165.281884
   1620   0.000000 173.598987
    985   0.000000  60.203252
   1155   0.000000 121.202486
   2137   0.000000  68.153778
   1413   0.000000 110.730329
   2044   0.000000 119.905254
   2702   0.000000  66.859051
   2112   0.000000  72.567070
   1041   0.000000  86.375397
   1198   0.000000 172.488797
   2023   0.000000  58.853912
    732   0.000000  63.373368
   2280   0.000000 108.539632
   2784   0.000000  67.016724
    687   0.000000 150.867106
   2301   0.000000 175.412766
   2541   0.000000 110.634355
   3048   0.000000 156.430514
   1790   0.000000  51.184418
   1796   0.000000 147.848570
   1467   0.000000  60.895888
   1497   0.000000  60.753672
    181   0.000000  96.951023
   1463   0.000000 129.093647
   2295   0.000000  54.674760
   2782   0.000000 151.013041
   2492   0.000000 139.692428
   1365   0.000000 118.302251
   2364   0.000000  78.656754
    363   0.000000  65.944670
   1661   0.000000 121.254256
    901   0.000000 116.498550
   1201   0.000000 134.604582
    709   0.000000  66.606151
   1301   0.000000  86.031065
   2399   0.000000 126.121644
    722   0.000000 170.444420
   2625   0.000000  74.925961
   1153   0.000000  44.263774
   2596   0.000000 130.304812
     97   0.000000 153.952395
   1779   0.000000 106.987222
    755   0.000000  54.934768
   2440   0.000000 162.507459
     67   0.000000  58.892745
   1872   0.000000 169.836499
   2093   0.000000  53.717379
   1616   0.000000  59.159209
    330   0.000000  97.950822
   2118   0.000000  80.157235
   1843   0.000000 174.960169
    620   0.000000  51.854532
   1899   0.000000  94.461759
   1400   0.000000 111.490701
    352   0.000000 170.601952
     70   0.000000 156.254542
   1755   0.000000 126.057680
   1705   0.000000  96.269392
    446   0.000000 112.946284
    877   0.000000 150.832282
     87   0.000000 103.294754
   2732   0.000000 141.782907
    666   0.000000 159.530104
   2808   0.000000 104.759553
   1172   0.000000  55.006329
    484   0.000000 159.342503
   3159   0.000000 101.851691
    120   0.000000  41.146483
   2623   0.000000 111.625203
   2813   0.000000 144.579490
   1568   0.000000 115.493435
   1094   0.000000 113.045194
   2661   0.000000 142.397858
   2865   0.000000 148.801176
    752   0.000000 120.990532
   2065   0.000000  62.819416
     15   0.000000 141.261839
   1813   0.000000  64.347142
   2804   0.000000 132.762144
   2739   0.000000  74.508382
   2956   0.000000 124.627523
   1709   0.000000 102.763584
   1015   0.000000 163.415491
   3193   0.000000  64.643895
   1090   0.000000 177.767581
   1712   0.000000  44.003933
   1874   0.000000 135.751574
   1871   0.000000  70.974664
   2715   0.000000 141.584586
    893   0.000000  44.989139
   2538   0.000000 130.243641
    423   0.000000 100.964224
    841   0.000000  86.941028
    395   0.000000  49.795863
   1338   0.000000  51.496939
   1951   0.000000  65.898496
   2386   0.000000 122.366319
    104   0.000000  53.218627
    525   0.000000  52.927486
   2363   0.000000  65.590579
    473   0.000000 108.005605
    731   0.000000  50.008717
   1628   0.000000  60.746579
   2297   0.000000  67.843976
    717   0.000000 174.806028
    590   0.000000 105.971285
    573   0.000000  52.753146
   1481   0.000000  57.472791
    840   0.000000  46.679437
   2285   0.000000  63.909281
    567   0.000000 104.777081
   1442   0.000000  65.256613
   2317   0.000000  59.081547
   3151   0.000000 130.961685
    397   0.000000 104.555135
   2229   0.000000  60.739272
   2599   0.000000  72.494605
   2463   0.000000 131.772866
    319   0.000000 101.485141
   1326   0.000000  91.185208
   2619   0.000000 115.818247
   3081   0.000000 135.881187
   3038   0.000000 141.895680
   3201   0.000000  66.645975
    350   0.000000 162.770631
   2669   0.000000  75.889045
   3228   0.000000 153.654015
   1889   0.000000 105.246342
   2069   0.000000 176.219343
   1748   0.000000 104.021447
    226   0.000000 179.992150
    711   0.000000  56.862264
    773   0.000000  46.672886
   2829   0.000000  66.906452
    237   0.000000  55.444804
   1527   0.000000  66.201931
    520   0.000000  48.425378
   2158   0.000000 153.655149
   1449   0.000000 134.792360
   3004   0.000000 164.442628
    912   0.000000 106.787518
    954   0.000000  53.633211
   1765   0.000000  65.239307
   2698   0.000000  66.459455
   1251   0.000000 112.841889
   1963   0.000000  63.404975
     40   0.000000  89.457408
    221   0.000000  52.459982
    861   0.000000 153.721715
   2272   0.000000 135.387130
    848   0.000000 168.682370
     26   0.000000  50.097551
   2015   0.000000  63.524905
   2215   0.000000  50.552379
   1573   0.000000  60.562929
   1626   0.000000 112.843853
   1689   0.000000 152.953956
    452   0.000000  93.296236
   2793   0.000000 140.679399
    534   0.000000  55.473998
   2327   0.000000 122.756523
   1210   0.000000 174.093969
   2710   0.000000 159.228238
   1199   0.000000  63.515174
    379   0.000000  44.963051
   1634   0.000000 118.220173
    935   0.000000 105.682727
   2085   0.000000  99.693156
    206   0.000000 110.240079
   1881   0.000000  54.411927
   2959   0.000000  65.110393
   2037   0.000000 127.304767
    115   0.000000 104.155812
   1417   0.000000 118.495701
   2194   0.000000 118.204048
    458   0.000000 113.160162
    183   0.000000  43.716957
    420   0.000000  50.688140
   2595   0.000000 147.908473
   2175   0.000000 108.932888
    604   0.000000 148.189525
   2533   0.000000  63.894454
    326   0.000000 162.480896
    740   0.000000  60.189980
   2506   0.000000 123.123271
   2818   0.000000  71.984136
    527   0.000000 154.391758
   2807   0.000000  78.367854
   2275   0.000000 113.448110
    144   0.000000 108.208430
     68   0.000000 128.464832
   1516   0.000000 167.935185
   2391   0.000000 106.201037
   1289   0.000000 179.563259
   2566   0.000000  74.565573
   2673   0.000000 154.346179
    996   0.000000 100.720004
   1999   0.000000 178.235248
    229   0.000000  57.145705
   2259   0.000000 119.083244
   3154   0.000000 159.357988
   1884   0.000000  53.690162
   1942   0.000000  55.986080
   1061   0.000000 161.860262
   2525   0.000000  63.581925
    334   0.000000 142.009918
   1275   0.000000 100.059073
   1807   0.000000 150.775560
    405   0.000000 102.413616
   1920   0.000000 174.922759
   2571   0.000000 114.109031
   1740   0.000000 104.953011
    337   0.000000  90.903640
    266   0.000000 120.453709
    745   0.000000  60.465699
   2814   0.000000  83.172268
    649   0.000000 125.746394
   1419   0.000000 111.071489
   1321   0.000000 117.419472
   1680   0.000000  54.131940
   2521   0.000000  63.702275
   3042   0.000000  75.948733
    964   0.000000 157.156261
   2955   0.000000 120.601787
   2043   0.000000  61.491521
      2   0.000000  52.072781
   1095   0.000000 164.520239
    424   0.000000  99.927156
    165   0.000000  55.692796
   3120   0.000000 141.723727
   1216   0.000000  60.963107
   2581   0.000000 112.096606

Angles # ['angleID', 'angleType', 'atom1', 'atom2', 'atom3']

      2171      2171       109       131       130
       191       191        55        10        97
      1703      1703        19        97       218
       610       610        50        32        91
      2444      2444         7       153        60
       639       639        36        33       137
       979       979        34        51       225
       244       244        25        13       168
      1498      1498        12        84        42
       416       416       126        21       184
      2852      2852        48       190       111
      2377      2377       138       146       186
       533       533        39        28        90
      1091      1091        26        57       160
      3015      3015        45       206       118
      1384      1384         5        76        78
       232       232        40        12        69
       778       778        23        41       199
      1402      1402        57        77       160
      1405      1405       111        77       160
      2174      2174       109       131       209
      1767      1767        20       101        36
      3198      3198         8       225       144
      2518      2518        79       158       120
       245       245        25        13       174
      2764      2764        27       180        38
      3074      3074        54       212       138
      1257      1257        88        67       183
      1335      1335       164        72       179
      2600      2600        35       165        71
      1501      1501        12        84       161
       921       921       161        48       197
       300       300        34        16       102
       389       389        34        20       101
        93        93        73         5       208
      1000      1000       127        52       204
      2167      2167       152       130       213
       783       783        68        41       199
        80        80         1         5        73
       756       756        12        40       112
      1641      1641       141        93       173
      2349      2349        20       144        51
      2626      2626         1       167        23
      3029      3029         7       207       140
       417       417       126        21       195
      2855      2855        72       190       111
      2176      2176       130       131       143
      1327      1327       111        72       164
      3005      3005       166       204       213
      1121      1121        10        59       116
      3175      3175        32       223        50
      1607      1607       154        91       203
      2005      2005        41       117       126
       195       195        59        10        97
      2009      2009       126       117       217
       384       384        33        20       101
       497       497        47        26        73
      1019      1019       153        53       159
      1589      1589        47        90       128
      3223      3223         2       228       157
      2445      2445         7       153        88
       802       802        69        42       133
      2630      2630         5       167        92
       559       559        85        29       145
      1699      1699        19        97       168
      1254      1254        87        67       172
      1676      1676        31        96       198
      2421      2421       114       150       182
       184       184        45        10        55
       974       974        16        51       144
      2120      2120        56       126       117
      2614      2614        11       166        52
      2090      2090        48       124       190
      1454      1454       121        80       143
      2901      2901        21       195        49
       872       872       129        46       189
       275       275        83        14       158
      2564      2564       134       162       136
      2824      2824         1       187       179
      1273      1273        89        68       217
       794       794       199        41       217
      1262      1262        41        68       202
       538       538        47        28       106
      1952      1952        79       113       124
      2537      2537       172       159       219
      1393      1393        73        76        78
       513       513        17        27       113
      1523      1523        35        86        74
      1028      1028        37        54       178
      1700      1700        19        97       174
       150       150        51         8       150
      1055      1055        24        55        80
      2536      2536       108       159       219
       609       609       198        31       216
      2396      2396       135       148       162
       269       269        44        14        84
      1282      1282         8        69        42
      2937      2937        81       198       138
       444       444       179        22       187
      1135      1135        67        60       123
      1208      1208        55        64        59
      1515      1515        16        85       145
       817       817        18        43        95
      2828      2828        72       187       111
      1982      1982        38       115       149
      1973      1973       150       114       192
      3019      3019        49       206       155
      1437      1437       113        79       158
      2107      2107        25       125       119
       541       541        90        28       106
      2293      2293        98       139       141
       345       345        19        18       201
      2459      2459        65       154       105
      1436      1436       113        79       120
      3179      3179        50       223        78
      1319      1319       165        71       220
        69        69        67         4       183
      1067      1067        21        56        30
      1386      1386        26        76        50
      1739      1739       106        99       197
      2899      2899       131       194       152
      1690      1690       178        96       198
      2609      2609         9       166        11
      2689      2689        35       173        86
      1034      1034        58        54       212
      2341      2341       109       143       121
      1550      1550       169        87       202
      1547      1547       108        87       172
      2371      2371        30       146       212
      2384      2384        15       147       224
      2779      2779        99       182       107
      2747      2747        96       178       212
      1592      1592        65        90       128
       903       903       104        48       197
      1670      1670        92        95       125
      2473      2473        21       155        49
      2613      2613         9       166       214
      1791      1791        45       103       118
      1683      1683       138        96       171
       523       523        62        27       164
      3213      3213        83       226       193
       555       555        52        29       145
      1470      1470       138        81       198
      1511      1511       158        84       161
      3215      3215        58       227        60
       130       130        53         7       193
      1109      1109       156        58       205
      2244      2244       103       136       162
        16        16        77         1       111
      2603      2603        46       165        71
      1943      1943        44       112        63
      2774      2774       123       181       224
       155       155        69         8       192
       503       503        57        26        78
      1322      1322        17        72       164
      3058      3058        75       210       114
       883       883        28        47        57
      2720      2720         9       176        82
      2882      2882         7       193       122
      2328      2328        11       142       168
      2968      2968        49       201       199
      2820      2820       146       186       156
      3144      3144        53       219       159
      1002      1002       166        52       204
      2724      2724        38       176       149
       938       938        45        49       195
      1967      1967        75       114       150
       621       621       108        32       159
       767       767        69        40       151
       537       537        47        28        90
        58        58       122         3       123
       660       660       101        34       144
       632       632        20        33       100
      2587      2587       139       163       184
      2806      2806        10       185        45
      2436      2436       130       152       218
      1390      1390        50        76        73
      2513      2513        14       158        79
       568       568         6        30        56
       871       871       129        46       165
      1713      1713       185        97       218
      1281      1281         8        69        40
      1081      1081        81        56       184
       148       148        51         8        69
      1733      1733       104        99       182
      1302      1302        90        70       105
        74        74       183         4       202
      1076      1076        30        56       163
      1423      1423        14        79       113
      1316      1316       105        71       220
      1846      1846        39       106        47
       920       920       161        48       190
       340       340        19        18        43
      1752      1752        33       100        46
      1134      1134        67        60       122
      2738      2738       195       177       199
      1119      1119        10        59        64
       220       220       166        11       213
      1854      1854        99       106       170
      3200      3200        40       225        69
      1729      1729       104        99       106
      1926      1926        77       111       187
      2014      2014       103       118       184
        41        41       157         2       228
       309       309        85        16       102
       505       505        73        26        76
      2163      2163       131       130       211
        27        27        63         2       228
      1272      1272        89        68       208
       653       653        20        34       101
      3220      3220       123       227       183
       133       133        63         7       153
      2130      2130        52       127        96
      2401      2401         9       149       176
      1672      1672        31        96       127
      2519      2519        79       158       161
      2241      2241       103       136       118
      1188      1188         2        63       207
      2342      2342       109       143       131
       582       582        81        30       186
      2075      2075       193       122       226
      2142      2142        47       128       203
      2042      2042        79       120       158
      2324      2324       162       141       173
      1137      1137        67        60       183
      2871      2871         8       192        51
      2767      2767         3       181       123
       335       335       119        17       179
       125       125        44         7       193
       418       418       155        21       177
       987       987         9        52       171
       678       678       134        35       173
      3229      3229       129       228       189
      2590      2590        17       164        72
       321       321        25        17       119
       824       824        95        43       174
      2048      2048        80       121       143
      1297      1297        65        70       105
      2434      2434       130       152       168
      2102      2102        13       125        43
      1631      1631        74        93       173
       228       228        14        12        69
      2139      2139        26       128       203
      2239      2239       110       135       148
       467       467        55        24        75
      2502      2502         2       157       228
      2846      2846       105       189       157
      1693      1693        10        97        19
      2760      2760        17       180        27
       453       453        41        23       208
      2415      2415        42       150       133
      1630      1630        74        93       141
      2145      2145        90       128       203
      1787      1787        85       102       196
       832       832        12        44       112
      1798      1798       116       103       136
      2217      2217        35       134        71
        43        43        15         3        83
      1398      1398         1        77       111
      1283      1283         8        69        84
      3022      3022       118       206       155
       914       914       124        48       197
        28        28       129         2       137
       234       234        40        12       112
      1810      1810       148       103       206
      1412      1412        50        78       128
      1905      1905        59       110       220
      1056      1056        24        55       175
      1849      1849        39       106       170
      2864      2864        27       191       113
      3136      3136       152       218       168
       515       515        17        27       180
      2810      2810        45       185        97
      2374      2374        54       146       186
      3161      3161        28       221       220
      3118      3118        74       216       145
      1078      1078        81        56       126
       318       318       196        16       209
      1578      1578        68        89       208
       139       139       153         7       193
      2084      2084       122       123       227
      1314      1314       105        71       134
       828       828         7        44       112
      1429      1429        83        79       120
        12        12        73         1        77
       886       886        28        47       128
       769       769       112        40       144
      2487      2487       195       155       206
       528       528       113        27       191
      2889      2889       122       193       226
      1914      1914       132       110       220
      2353      2353        34       144       225
       532       532        39        28        47
      3094      3094         9       214        82
      1040      1040       156        54       178
      3010      3010        58       205       156
      1247      1247         4        67       172
      2547      2547        77       160       104
       902       902       104        48       190
      1686      1686       138        96       212
      1538      1538        67        87       108
       634       634        20        33       129
      1580      1580        76        89       208
      1486      1486       214        82       215
      1317      1317       134        71       165
      1754      1754        33       100       129
      2486      2486       184       155       206
      2685      2685        87       172       159
       108       108        30         6       186
      1774      1774        36       101       145
      1097      1097        77        57       104
      3070      3070       196       211       209
      2214      2214       182       133       222
      2924      2924        48       197       222
      1328      1328       111        72       179
      3082      3082       146       212       178
       664       664        46        35       162
      1827      1827        65       105        71
      1663      1663        22        95        92
       391       391        34        20       144
      1717      1717        31        98       139
      1647      1647        15        94        62
      2881      2881         7       193        44
      2891      2891        61       194       130
      2608      2608       105       165       134
      1403      1403        73        77       111
      1894      1894       121       109       209
      1890      1890        16       109       209
        60        60       122         3       226
      2654      2654        68       169        89
      1577      1577        68        89       169
      3041      3041        41       208        89
      1865      1865        75       107        99
      2914      2914        16       196       211
       949       949        32        50        89
      2398      2398         9       149        37
       551       551        31        29       171
      1831      1831        70       105        71
       415       415       126        21       177
      1495      1495        79        83       226
       993       993        29        52       204
      1785      1785        52       102       196
       692       692        74        36       216
      2144      2144        78       128       203
      2602      2602        35       165       134
      1492      1492        14        83        94
      2700      2700        13       174        43
      2337      2337        80       143       109
      2753      2753        22       179        72
      2838      2838        92       188       199
      1396      1396         1        77        57
      1816      1816        57       104        99
        75        75       183         4       205
       157       157       114         8       150
      1105      1105        54        58       205
      1722      1722        74        98       198
       929       929        18        49       195
      2149      2149         2       129       228
      2182      2182       143       131       211
       706       706         9        37       149
      1554      1554        53        88       153
      1611      1611       203        91       223
      1640      1640       139        93       173
      2389      2389        66       148       135
       933       933        19        49       155
      1698      1698        10        97       218
       168       168        37         9       214
      1025      1025        37        54        58
      1231      1231        71        66       135
      1877      1877        50       108       159
      1667      1667        43        95       119
      1639      1639       139        93       141
      3055      3055        24       210       114
       297       297       181        15       224
      2193      2193        39       132       220
      2979      2979        68       202        87
      1597      1597        32        91        65
      2991      2991        90       203        91
      2631      2631        22       167        23
      1986      1986        10       116        45
      1528      1528        36        86        93
      1719      1719        74        98        81
      2684      2684        87       172       108
      2515      2515        14       158       120
      1991      1991        45       116       103
      2170      2170       211       130       213
      1228      1228       154        65       203
         8         8        22         1        77
       510       510        78        26       128
      2931      2931        31       198        81
      1885      1885       169       108       172
      2064      2064         3       122       193
      1113      1113       181        58       224
       645       645       129        33       137
      1582      1582        28        90        47
       186       186        45        10        97
       283       283        62        15        94
      1642      1642         3        94        15
      2559      2559        35       162       134
      2664      2664        57       170       104
      2627      2627         1       167        92
      3167      3167        42       222       161
       488       488        17        25       180
      1561      1561        67        88       153
      3061      3061        80       210       121
      1623      1623        23        92       188
      1149      1149       123        60       183
       411       411       117        21       177
      1269      1269        87        68       217
      3203      3203        51       225       144
       910       910       120        48       222
      2633      2633        23       167        92
      2827      2827        22       187       179
      2751      2751        17       179       119
        30        30       129         2       157
      2845      2845       105       189       154
      2913      2913        16       196       209
      3135      3135        97       218       175
      1279      1279       208        68       217
      2195      2195        64       132       110
      3224      3224         2       228       189
      3157      3157       110       220       221
       606       606        98        31       216
      1924      1924        72       111       190
      1274      1274       169        68       202
      2984      2984        65       203        91
       695       695        86        36       145
       132       132        63         7       112
      2577      2577        56       163       141
      1694      1694        10        97       168
      1981      1981        38       115       147
      1323      1323        17        72       179
       853       853        49        45       116
      2181      2181       143       131       209
       512       512        17        27        62
      2851      2851        48       190        72
       156       156        69         8       225
       667       667        86        35       100
       913       913       124        48       190
      1852      1852        47       106       170
       476       476        75        24       107
      2783      2783       107       182       150
      2452      2452        60       153        88
       368       368        43        19        49
      2816      2816         6       186       146
       122       122        44         7        63
      2274      2274        81       138       212
      1695      1695        10        97       174
      1375      1375       114        75       150
      1499      1499        12        84        69
      1241      1241       135        66       148
       728       728        62        38       180
      1518      1518        29        85       145
       854       854        49        45       185
      2988      2988        78       203        91
      3114      3114        31       216        74
      1556      1556        53        88       172
      2246      2246       118       136       141
      2131      2131        52       127       171
      1687      1687       171        96       178
      1433      1433        94        79       120
      1452      1452        61        80       143
      2026      2026        17       119        22
      2041      2041        79       120       124
      1768      1768        20       101       145
      1406      1406        26        78        50
      1359      1359        36        74       216
      2535      2535       108       159       172
      2419      2419        75       150       182
      2109      2109        43       125       119
      1921      1921        72       111        77
      2072      2072       123       122       226
      1098      1098        77        57       160
        23        23        63         2       137
         9         9        22         1       111
      2277      2277        96       138       212
      1536      1536       100        86       173
      2621      2621       204       166       213
       603       603        96        31       216
       932       932        19        49        45
      1032      1032        58        54       156
      3027      3027         7       207        53
      2369      2369        30       146       156
       230       230        14        12       112
      1660      1660        18        95       119
       585       585       126        30       186
       312       312        85        16       209
       686       686        33        36       145
      1902      1902        59       110        66
      2220      2220        66       134        71
      2511      2511       189       157       228
       145       145        42         8       150
      2756      2756        72       179       119
      1862      1862        39       107        99
       602       602        96        31       198
       870       870       100        46       228
      1410      1410        26        78       223
      1563      1563        67        88       172
      1439      1439       120        79       158
       780       780        23        41       217
      1331      1331       124        72       164
      1475      1475        11        82       214
      1650      1650        15        94       191
      1388      1388        26        76        78
      2418      2418        75       150       133
      1512      1512        16        85        29
      1904      1904        59       110       135
      3067      3067       131       211       196
      1558      1558        60        88       153
       117       117       126         6       217
        44        44        15         3        94
      2993      2993        90       203       223
      2503      2503       140       157       154
      2258      2258         2       137        63
       398       398       101        20       144
      2092      2092        72       124       120
      1603      1603        65        91       200
      1941      1941        40       112        63
      1164      1164       143        61       194
       262       262        12        14        44
       995       995       102        52       166
       113       113       117         6       202
      2558      2558       158       161       222
      1379      1379       150        75       210
      1166      1166       175        61       194
      2834      2834        18       188       201
      2886      2886        44       193       153
      1957      1957       120       113       191
       785       785        68        41       217
      1163      1163       143        61       175
      1265      1265        87        68        89
      1268      1268        87        68       208
      3043      3043        16       209       109
       448       448         5        23       188
       801       801        69        42        84
      3125      3125        41       217       202
      3174      3174       161       222       197
      1933      1933         7       112        44
      2289      2289        81       139       163
      2250      2250       141       136       148
      2589      2589        17       164        27
      1457      1457        30        81        56
      1736      1736       106        99       133
      2412      2412         8       150       182
      2731      2731        21       177       195
      1278      1278       202        68       217
       727       727        62        38       176
      1916      1916         1       111        72
      2252      2252       141       136       163
      2269      2269        30       138       198
      2322      2322       139       141       173
      1349      1349        26        73        77
      2358      2358        29       145        85
      1649      1649        15        94        83
       815       815        13        43       174
      1543      1543        68        87       169
      1287      1287        12        69        84
      1214      1214        70        65        90
      1017      1017       140        53       207
      2890      2890       153       193       226
      1524      1524        35        86        93
      1995      1995       103       116       135
      1936      1936        12       112        40
      1522      1522        35        86        36
      2986      2986        65       203       223
      1636      1636        98        93       139
      2552      2552       111       160       190
       549       549        31        29       102
       856       856       103        45       116
      1844      1844        28       106       107
      1564      1564       153        88       159
      2348      2348        20       144        40
      1539      1539        67        87       169
      3057      3057        75       210        80
       895       895       106        47       128
       702       702       145        36       216
      2266      2266        30       138        81
      1609      1609       200        91       203
      1143      1143        88        60       227
      1591      1591        65        90        70
      3204      3204        69       225       144
      1602      1602        65        91       154
      2616      2616        11       166       213
       889       889        57        47       106
      1085      1085       139        56       163
      3143      3143        53       219       140
       402       402       144        20       151
       837       837        14        44       226
      1110      1110       156        58       224
      2429      2429        40       151       137
       241       241        25        13        43
      2893      2893        61       194       143
      1158      1158        55        61       218
      1725      1725        81        98       198
        21        21       167         1       187
      2024      2024       163       118       206
      3146      3146       140       219       159
      2792      2792        67       183       205
       247       247        43        13       125
      1519      1519        34        85       102
       380       380        97        19       185
       857       857       103        45       185
      1950      1950        27       113       191
        52        52        83         3       181
      1927      1927        77       111       190
      2971      2971       195       201       199
       143       143        42         8        69
        81        81         1         5        76
      1711      1711       175        97       185
      3126      3126        68       217       117
       100       100         4         6        30
       207       207        82        11       166
       818       818        18        43       125
      3181      3181        50       223       203
      2990      2990        78       203       223
      2151      2151        33       129       100
       939       939        45        49       201
      2290      2290        93       139        98
      2382      2382        15       147        37
      3072      3072       209       211       213
      1855      1855       107       106       170
      1720      1720        74        98        93
      2952      2952        91       200       140
       491       491        82        25       180
      1212      1212        59        64       132
        34        34       137         2       157
      2306      2306       157       140       207
       516       516        17        27       191
       535       535        39        28       132
      2031      2031        22       119       125
      1488      1488         3        83        79
      2826      2826        22       187       111
      2696      2696        93       173       141
       498       498        47        26        76
      2430      2430        63       151       112
        25        25        63         2       157
      2365      2365        85       145       216
      2150      2150        33       129        46
      1599      1599        32        91       200
      2081      2081        60       123       181
      1096      1096        47        57       170
      1793      1793        45       103       136
       219       219       142        11       215
      2586      2586       139       163       141
      3132      3132        61       218       175
        76        76       186         4       202
      1974      1974       150       114       210
      1955      1955       120       113       124
       553       553        52        29        85
      2366      2366       101       145       216
      2485      2485       184       155       195
       779       779        23        41       208
      3064      3064       130       211       196
      1092      1092        26        57       170
      2462      2462        65       154       200
      1732      1732       104        99       170
      2395      2395       135       148       136
      2086      2086        48       124        72
      1222      1222        90        65       203
       774       774       151        40       225
      1802      1802       118       103       136
      2196      2196        64       132       220
       253       253       125        13       168
      3069      3069       131       211       213
      2951      2951        32       200       219
      3182      3182        78       223        91
      1033      1033        58        54       178
       705       705         9        37       147
      1362      1362        86        74       216
       888       888        57        47        90
       327       327        27        17       164
       454       454        92        23       167
      2438      2438       142       152       194
       466       466        55        24        64
      3088      3088       130       213       204
      1989      1989        10       116       135
       209       209        82        11       214
       462       462        39        24        75
      1598      1598        32        91       154
       254       254       125        13       174
       562       562       102        29       145
      2870      2870        94       191       113
      1277      1277       202        68       208
       875       875       165        46       228
      1347      1347         5        73        77
      1665      1665        22        95       125
       744       744        28        39        64
       655       655        51        34        85
      2529      2529        53       159       108
      1211      1211        59        64       110
      1674      1674        31        96       171
      2812      2812         4       186        30
      2983      2983        65       203        90
      2498      2498         2       157       140
      1132      1132       116        59       135
      1460      1460        30        81       139
       487       487        17        25       125
      2504      2504       140       157       189
      1891      1891       121       109       131
      2164      2164       131       130       213
      1407      1407        26        78        76
       174       174       127         9       149
       764       764        20        40       225
       808       808       133        42       150
      1959      1959       124       113       191
      2632      2632        22       167        92
       983       983         9        52        29
        98        98        89         5       208
      1381      1381         5        76        26
      2103      2103        13       125        95
      1426      1426        14        79       191
       540       540        47        28       221
      1912      1912        66       110       220
        18        18        77         1       187
      3127      3127        68       217       202
       811       811        13        43        18
      1252      1252        60        67       183
      1513      1513        16        85        34
       971       971         8        51       192
       676       676       134        35       162
      1183      1183       115        62       191
      2442      2442       194       152       218
      3221      3221         2       228        46
      1565      1565       153        88       172
      1131      1131       110        59       135
       735       735       115        38       180
      2307      2307       157       140       219
      2932      2932        31       198        96
       809       809       133        42       222
       804       804        69        42       222
      2056      2056       114       121       192
      1549      1549       169        87       172
      1702      1702        19        97       185
      2624      2624         1       167         5
       897       897       128        47       170
      2771      2771        15       181       224
      2528      2528        53       159        88
      1570      1570         5        89       169
      1567      1567         5        89        50
      1361      1361        86        74        98
      2730      2730        21       177       117
      1117      1117       224        58       227
      1828      1828        65       105       154
      2723      2723        38       176        82
      1421      1421        14        79        83
      1480      1480        25        82       215
      2123      2123         9       127        96
       288       288        94        15       115
      2563      2563        35       162       173
       707       707         9        37       178
      1332      1332       124        72       179
        56        56        94         3       181
      1416      1416        76        78       203
      1167      1167       175        61       218
      2867      2867        62       191       113
      3054      3054        24       210        80
      3163      3163        70       221       220
      2281      2281        56       139        81
      2762      2762        25       180        27
      3101      3101        82       214       176
       866       866        35        46       228
      2561      2561        35       162       141
      1909      1909        64       110       220
      1350      1350        76        73        77
      1226      1226       105        65       154
      1832      1832        70       105       154
      1972      1972       121       114       210
       930       930        18        49       201
      1305      1305        66        71        70
        77        77       186         4       205
      3066      3066       130       211       213
      3092      3092       204       213       211
      2647      2647       152       168       218
       986       986         9        52       166
       289       289        94        15       147
      1444      1444        24        80       121
       542       542        90        28       132
       924       924       190        48       222
      1394      1394        73        76        89
      2134      2134        96       127       178
       442       442       167        22       179
      3044      3044        16       209       131
      1820      1820        99       104       160
       552       552        31        29       216
       723       723        27        38       180
      1727      1727        93        98       198
      1371      1371       107        75       114
       587       587       138        30       186
      1956      1956       120       113       164
      1336      1336       164        72       187
      3189      3189        54       224        58
       471       471        64        24        75
       636       636        36        33       100
      2615      2615        11       166       204
      2268      2268        30       138       146
      3140      3140        32       219       140
       955       955        76        50       108
      2336      2336        61       143       194
      1418      1418       128        78       203
      2811      2811         4       186         6
      2797      2797        21       184       155
      2406      2406        38       149       176
      1180      1180        38        62       191
      2111      2111         6       126        21
      2020      2020       155       118       163
      2819      2819        30       186       156
       141       141       193         7       207
      1191      1191         7        63       151
      1366      1366        24        75       107
      2283      2283        56       139        98
      1998      1998         6       117       126
       599       599        74        31       216
      1850      1850        47       106        99
      2080      2080        60       123       122
       633       633        20        33       101
       518       518        38        27       113
       892       892        90        47       106
       153       153        69         8       114
      2173      2173       109       131       194
       142       142        42         8        51
      2917      2917       102       196       211
      2409      2409         8       150        75
      1931      1931         7       112        12
       255       255       125        13       215
       431       431        92        22       119
      2029      2029        17       119       179
       734       734       115        38       176
        63        63       181         3       226
      1669      1669        92        95       119
      3222      3222         2       228       129
       641       641       100        33       129
       598       598        74        31       198
      1491      1491        14        83        79
      2940      2940        98       198       138
      3008      3008         4       205       156
      1677      1677        31        96       212
      2961      2961       157       200       219
      1875      1875        32       108       172
       284       284        62        15       115
       224       224       213        11       215
      2672      2672        29       171       127
      2490      2490        54       156       186
      1205      1205        39        64        59
      1306      1306        66        71       105
       435       435        95        22       119
      2033      2033        95       119       125
       846       846        10        45       206
      1376      1376       114        75       182
       673       673       100        35       162
       925       925       197        48       222
         1         1         5         1        22
      2004      2004        21       117       217
      1464      1464        56        81       139
       285       285        62        15       147
       775       775        23        41        68
      3086      3086        11       213       211
       110       110        30         6       217
      1016      1016       140        53       159
      3169      3169        48       222       133
      2461      2461        65       154       189
       136       136       112         7       153
      2551      2551       104       160       190
      1049      1049        10        55        64
      1236      1236       110        66       148
      2078      2078         3       123       181
      2188      2188        28       132       110
      2315      2315        93       141       173
      2736      2736       117       177       195
      2634      2634        13       168        97
      1993      1993        59       116       103
      3205      3205         3       226        44
      2403      2403        37       149       115
      2316      2316       136       141       139
      1318      1318       134        71       220
       668       668        86        35       134
      1691      1691       178        96       212
       263       263        12        14        79
      1929      1929       160       111       190
      2053      2053       109       121       192
       879       879        26        47        90
      2928      2928       104       197       133
      3098      3098        11       214       166
      2916      2916       102       196       209
       490       490        82        25       125
      2999      2999        52       204       196
      2802      2802       118       184       155
      2439      2439       142       152       218
      2939      2939        96       198       138
      1038      1038       146        54       212
      1116      1116       205        58       227
      2796      2796        21       184       118
       135       135        63         7       207
       596       596        74        31        98
      3113      3113        31       216        36
       328       328        27        17       179
       646       646        16        34        20
      2027      2027        17       119        95
        89        89        23         5       208
      1939      1939        12       112       151
      2007      2007        41       117       217
      1195      1195       112        63       207
      1304      1304       105        70       221
      1340      1340       187        72       190
      2204      2204        42       133       197
      1360      1360        86        74        93
      2267      2267        30       138        96
       638       638        36        33       129
      1545      1545        68        87       202
      2231      2231        66       135       103
      3012      3012       156       205       183
      3152      3152        66       220       221
      3083      3083        11       213       130
       766       766        69        40       144
      2248      2248       118       136       162
      1103      1103        54        58       156
       612       612        50        32       159
       493       493       125        25       180
      2532      2532        88       159       108
      1830      1830        65       105       189
       940       940        45        49       206
       192       192        55        10       116
      1507      1507        42        84       158
      1895      1895       131       109       143
      1541      1541        67        87       202
      1300      1300        71        70       105
       688       688        74        36        86
      1062      1062        61        55        80
       322       322        25        17       164
      1190      1190         7        63       137
      2507      2507       154       157       189
       776       776        23        41       117
       718       718        27        38        62
      1004      1004         7        53        88
        71        71        67         4       202
       208       208        82        11       213
      1625      1625        95        92       188
      1834      1834        70       105       189
       772       772       144        40       151
      1064      1064        64        55        80
      1735      1735       106        99       107
      2574      2574        56       163       118
      3001      3001       102       204       166
       990       990        29        52       127
       583       583       126        30       138
      1070      1070        21        56       139
      2583      2583       136       163       139
       194       194        55        10       185
       103       103         4         6       186
      2001      2001        21       117        41
      1749      1749       182        99       197
      1483      1483        38        82       215
      2302      2302        53       140       200
      2291      2291        93       139       141
      1958      1958       124       113       164
       203       203       116        10       185
      2351      2351        34       144        40
      1225      1225        91        65       203
      2219      2219        35       134       165
       972       972         8        51       225
      1569      1569         5        89        76
       279       279         3        15       115
      2601      2601        35       165       105
      2749      2749        17       179        22
      1893      1893       121       109       192
      2754      2754        22       179       119
      2124      2124         9       127       171
        78        78       202         4       205
       196       196        59        10       116
       611       611        50        32       108
      2282      2282        56       139        93
       495       495       180        25       215
      3084      3084        11       213       166
      2025      2025       184       118       206
      3023      3023         2       207         7
      2071      2071       123       122       193
      1344      1344         1        73        77
       419       419       155        21       184
      1021      1021       153        53       219
      2678      2678        96       171       127
       759       759        12        40       225
      1422      1422        14        79        94
      3016      3016        45       206       155
      2840      2840       199       188       201
       124       124        44         7       153
      2493      2493        58       156       186
      2212      2212       150       133       222
       642       642       100        33       137
      3155      3155        71       220       221
      2201      2201        42       133        99
      2947      2947        32       200        91
      2660      2660        47       170        99
      1428      1428        83        79       113
       965       965       108        50       169
      1144      1144       122        60       123
      1352      1352        31        74        86
       777       777        23        41       177
      1197      1197       137        63       207
       198       198        59        10       185
      1940      1940        40       112        44
      3188      3188        15       224       181
      2722      2722         9       176       214
      2579      2579       118       163       136
      2610      2610         9       166        52
        11        11        22         1       187
       485       485        13        25       215
      1047      1047        10        55        59
      1292      1292        42        69        84
      1368      1368        24        75       150
      1977      1977        15       115        62
       351       351        49        18        92
      1397      1397         1        77        73
      1903      1903        59       110       132
       699       699       100        36       216
      2550      2550       104       160       111
      3177      3177        32       223        91
      2340      2340        80       143       194
      1124      1124        55        59       110
      1651      1651        62        94        79
      1742      1742       107        99       182
      3160      3160        28       221       132
      3099      3099        11       214       176
       333       333        72        17       180
      3000      3000        52       204       213
      1856      1856        24       107        39
       691       691        74        36       145
      1945      1945        63       112       151
      1458      1458        30        81        98
      1042      1042       156        54       224
       426       426         1        22       119
      1901      1901        59       110        64
      2361      2361        36       145        85
      1833      1833        70       105       165
       661       661        46        35        86
       956       956        76        50       169
       373       373        45        19        97
      1766      1766        20       101        34
      1356      1356        36        74        86
      3017      3017        49       206       103
      1077      1077        30        56       184
      1658      1658        18        95        43
      2298      2298         2       140       200
      1657      1657        18        95        22
       116       116       126         6       202
       225       225       214        11       215
       268       268        44        14        83
      2844      2844        46       189       228
      2157      2157        11       130       152
      2863      2863        27       191        94
      3111      3111        29       216        74
      1073      1073        30        56        81
      3095      3095         9       214       166
       470       470        55        24       210
      1239      1239       134        66       148
      1043      1043       178        54       212
      2522      2522       120       158       161
       749       749        64        39       107
      2711      2711        10       175        97
      1697      1697        10        97       185
      2697      2697        93       173       162
       916       916       160        48       161
      1099      1099        77        57       170
      2326      2326        11       142        13
       231       231        40        12        44
       461       461        39        24        64
      1248      1248         4        67       183
      1448      1448        55        80       121
      1472      1472        11        82        25
      1808      1808       136       103       148
      2162      2162       131       130       194
      2077      2077         3       123       122
       315       315       102        16       209
      2012      2012       103       118       155
      2227      2227        59       135       103
      2837      2837        23       188       201
        72        72        67         4       205
      2604      2604        46       165       105
      3185      3185        15       224        54
      2061      2061         3       122        60
       836       836        14        44       193
        20        20       111         1       187
       601       601        96        31       171
       382       382        33        20        34
      2096      2096       113       124       164
      1708      1708       174        97       175
      1249      1249        60        67        87
       931       931        18        49       206
      2329      2329        13       142       152
      2638      2638        13       168       218
      1063      1063        61        55       175
      1750      1750        33       100        35
      1918      1918         1       111       160
      2869      2869        79       191       113
      2199      2199       110       132       221
      3149      3149        66       220        71
      1923      1923        72       111       187
       128       128        53         7       112
       851       851        19        45       206
      1655      1655        79        94       191
      2189      2189        28       132       220
        37        37       140         2       157
      2450      2450        53       153       122
       504       504        57        26       128
      2524      2524        32       159        88
      2310      2310       207       140       219
      1065      1065        64        55       175
      2704      2704        19       174        97
       860       860       116        45       206
       999       999       127        52       171
      3218      3218        60       227       123
      2132      2132        52       127       178
      1551      1551       172        87       202
      3093      3093         9       214        11
       277       277         3        15        62
       290       290        94        15       181
      2271      2271        81       138        96
      2791      2791        60       183       227
      1130      1130       110        59       116
      1860      1860        24       107       182
      2441      2441       168       152       218
      1093      1093        47        57        77
      1146      1146       122        60       183
      1046      1046        10        55        24
      1707      1707       168        97       218
      3166      3166        42       222       133
      1074      1074        30        56       126
       789       789       117        41       217
       517       517        38        27        62
      2114      2114         6       126       117
      1859      1859        24       107       106
      1532      1532        74        86       100
      1468      1468        98        81       198
       292       292       115        15       147
       412       412       117        21       184
      1089      1089        26        57        77
      1108      1108       156        58       181
      1745      1745       133        99       182
      2106      2106        25       125        95
       252       252       125        13       142
      3121      3121         6       217       117
      1654      1654        79        94        83
      1337      1337       164        72       190
      2682      2682        67       172       159
       529       529       164        27       180
      1644      1644         3        94        79
       630       630       219        32       223
      2115      2115        21       126        30
      1581      1581       169        89       208
      1100      1100       104        57       160
      1432      1432        94        79       113
      1057      1057        59        55        61
      1058      1058        59        55        64
      1022      1022       159        53       207
      1826      1826        65       105        70
      2128      2128        37       127       171
      3107      3107        13       215        82
       313       313       102        16       109
      2284      2284        56       139       141
       238       238        69        12        84
       422       422       177        21       195
      2789      2789        60       183        67
       323       323        25        17       179
      1389      1389        26        76        89
       413       413       117        21       195
      2067      2067        60       122       153
       123       123        44         7       112
      2261      2261        20       137        63
       341       341        19        18        49
      2087      2087        48       124       113
      2094      2094        72       124       190
      2618      2618        52       166       204
      2192      2192        39       132       110
       926       926        18        49        19
      1309      1309        66        71       220
      1490      1490         3        83       226
      1883      1883       159       108       169
      2894      2894        61       194       152
      1290      1290        40        69        84
      2655      2655        68       169       108
      2934      2934        31       198       138
        42        42       207         2       228
       595       595        74        31        96
      3096      3096         9       214       176
       950       950        32        50       108
      1784      1784        52       102        85
      1728      1728       139        98       198
      1462      1462        56        81        98
      2180      2180       143       131       194
       904       904       104        48       222
       905       905       120        48       124
      2706      2706        43       174        97
       286       286        62        15       181
      2766      2766         3       181        58
       190       190        55        10        59
       754       754        12        40        20
      1799      1799       116       103       148
       482       482        13        25        82
      1704      1704       168        97       174
      2965      2965        18       201       199
       119       119       186         6       217
       163       163        37         9        52
      2962      2962        18       201        49
      1770      1770        33       101        36
      3138      3138       168       218       175
      1473      1473        11        82        38
      1757      1757        35       100        86
      2744      2744        54       178       127
       479       479        80        24       210
       364       364        18        19        97
       455       455        92        23       188
       358       358        95        18       188
      1294      1294        84        69       225
       409       409       117        21       126
       713       713       127        37       149
       882       882        26        47       170
      2091      2091        72       124       113
      2057      2057       114       121       210
      3172      3172       133       222       161
      1415      1415        76        78       128
      2948      2948        32       200       140
      2471      2471       157       154       200
      1001      1001       166        52       171
      1036      1036       146        54       156
      2585      2585       136       163       184
      2908      2908       155       195       177
       726       726        62        38       149
      3219      3219        60       227       183
      2648      2648       174       168       218
      1443      1443        24        80        61
       671       671        86        35       173
       805       805        84        42       133
      1044      1044       178        54       224
      1401      1401        57        77       111
      2716      2716        61       175        97
      2237      2237       103       135       148
      2254      2254       148       136       163
      2208      2208        99       133       197
       607       607       171        31       198
      2718      2718        97       175       218
      1595      1595        70        90       203
      2567      2567       134       162       173
      2815      2815         6       186        30
      2453      2453        60       153       122
      2017      2017       136       118       163
      2565      2565       134       162       141
      3122      3122         6       217       202
       440       440       119        22       179
        73        73       183         4       186
      1307      1307        66        71       134
      2058      2058       143       121       192
      2572      2572       141       162       173
      2817      2817         6       186       156
       546       546       132        28       221
      2224      2224        71       134       165
      1242      1242       135        66       220
       317       317       109        16       209
       357       357        92        18       201
       697       697       100        36       101
      1404      1404        73        77       160
       227       227        14        12        44
       793       793       199        41       208
      2416      2416        42       150       182
      2712      2712        10       175       218
      2884      2884         7       193       226
      2675      2675        31       171       127
      2800      2800        56       184       155
       927       927        18        49        45
       187       187        45        10       116
      1823      1823       160       104       170
      2270      2270        30       138       212
       670       670        86        35       165
      2368      2368        30       146       138
      2896      2896       130       194       143
       111       111       117         6       126
       975       975        16        51       192
      2978      2978         6       202       217
      1023      1023       159        53       219
      2879      2879       109       192       121
      1372      1372       107        75       150
      2659      2659        47       170        57
      3108      3108        25       215        82
       969       969         8        51        34
      3051      3051       131       209       211
       521       521        38        27       191
      1420      1420       203        78       223
      2557      2557        84       161       222
       189       189        45        10       185
       338       338       164        17       180
      2677      2677        52       171       127
      2769      2769        15       181        58
      2906      2906        49       195       177
      3128      3128       117       217       202
      1504      1504        14        84       158
      3184      3184        91       223       203
      2330      2330        13       142       168
      2726      2726        82       176       149
       915       915       124        48       222
      1932      1932         7       112        40
      2172      2172       109       131       143
      1066      1066        80        55       175
      1971      1971       121       114       192
        47        47        15         3       181
       154       154        69         8       150
      1104      1104        54        58       181
      2980      2980        68       202       217
       314       314       102        16       196
      2569      2569       136       162       148
      1215      1215        70        65        91
       715       715       147        37       149
       408       408        56        21       195
      2958      2958       140       200       219
      3028      3028         7       207        63
      1270      1270        89        68       169
      2734      2734        41       177       195
      1675      1675        31        96       178
        92        92        73         5       167
      1438      1438       113        79       191
      1987      1987        10       116        59
       166       166        37         9       166
      1747      1747       170        99       182
      1555      1555        53        88       159
       680       680       162        35       173
      1664      1664        22        95       119
      2035      2035       125       119       179
      2313      2313        93       141       162
       374       374        45        19       174
      2256      2256         2       137        20
      2688      2688       108       172       159
       158       158       114         8       192
      2785      2785         4       183        60
      2823      2823         1       187       111
      1411      1411        50        78        76
       305       305        51        16       102
      2885      2885        44       193       122
        22        22        63         2       129
      1840      1840       165       105       189
      2148      2148         2       129       100
      1177      1177        27        62       191
       613       613        50        32       200
      1102      1102       160        57       170
      2210      2210       150       133       182
      2909      2909       155       195       201
      2028      2028        17       119       125
      1151      1151       153        60       183
       826       826         7        44        12
      2022      2022       155       118       206
      2969      2969       188       201       195
       303       303        34        16       209
      2318      2318       136       141       163
      1035      1035        58        54       224
      1821      1821        99       104       170
      1619      1619        22        92       167
      1756      1756        35       100        46
      2054      2054       109       121       210
      2147      2147         2       129        46
      2334      2334        61       143       121
      1562      1562        67        88       159
      2346      2346       131       143       194
      2705      2705        19       174       168
      2799      2799        56       184       118
       679       679       162        35       165
      2325      2325       163       141       173
      1633      1633        86        93       139
      2592      2592        17       164       124
       574       574        56        30        81
       992       992        29        52       171
        90        90        73         5        76
       628       628       200        32       219
      2039      2039        48       120       158
      2381      2381       186       146       212
      2607      2607        71       165       134
      2653      2653        68       169        87
      1037      1037       146        54       178
      1857      1857        24       107        75
      2575      2575        56       163       136
       918       918       160        48       197
      2981      2981        87       202       217
       946       946       201        49       206
      2279      2279       146       138       212
      2770      2770        15       181       123
      2257      2257         2       137        33
      2887      2887        44       193       226
      3046      3046        16       209       211
      2645      2645       142       168       218
      1656      1656        83        94       191
      2517      2517        79       158        84
       127       127        53         7        63
       506       506        73        26        78
       959       959        78        50       108
      1086      1086       139        56       184
       637       637        36        33       101
      2304      2304        53       140       219
      1014      1014        88        53       219
      1579      1579        76        89       169
      2213      2213       182       133       197
      2355      2355        40       144       225
      1330      1330       111        72       190
       597       597        74        31       171
      1341      1341         1        73         5
      1369      1369        24        75       182
      2858      2858       111       190       124
      1494      1494        79        83        94
      1615      1615        18        92       167
      2922      2922        48       197       104
      1938      1938        12       112        63
       299       299        34        16        85
       362       362        18        19        45
       394       394        40        20       137
      2843      2843        46       189       157
       273       273        79        14       158
      2287      2287        81       139        98
      1071      1071        21        56       163
       683       683        33        36        86
      1147      1147       122        60       227
       251       251        43        13       215
      1627      1627        74        93        86
      2458      2458        65       154        91
      1156      1156        55        61       175
      1910      1910        66       110       132
       951       951        32        50       169
      3210      3210        44       226       122
       765       765        69        40       112
      3141      3141        32       219       159
      2907      2907        49       195       201
      1232      1232        71        66       148
       170       170        52         9       149
      1299      1299        71        70        90
      1714      1714        31        98        74
      1741      1741       107        99       170
       544       544       106        28       132
      2580      2580       118       163       139
      2717      2717        61       175       218
      2470      2470       157       154       189
      2098      2098       120       124       164
      1605      1605        65        91       223
       180       180       149         9       214
       354       354        49        18       201
       550       550        31        29       145
       575       575        56        30       126
       465       465        39        24       210
      2447      2447         7       153       193
      2225      2225       162       134       165
      1789      1789       196       102       204
      2101      2101        13       125        25
      2761      2761        17       180        38
       301       301        34        16       109
       215       215       130        11       215
      1363      1363        93        74        98
       167       167        37         9       176
      2707      2707        43       174       168
      2788      2788         4       183       227
       530       530       164        27       191
      2597      2597        72       164       124
       753       753       107        39       132
      2108      2108        43       125        95
      1758      1758        35       100       129
      2612      2612         9       166       213
      1126      1126        55        59       135
      2775      2775        75       182        99
      2683      2683        87       172        88
       242       242        25        13       125
      2644      2644       142       168       174
      2165      2165       152       130       194
      1520      1520        34        85       145
      3176      3176        32       223        78
      2010      2010       177       117       217
      1431      1431        83        79       191
       348       348        43        18        95
      1114      1114       181        58       227
       105       105         4         6       217
      2234      2234        66       135       148
      1544      1544        68        87       172
      3162      3162        70       221       132
      2198      2198       110       132       220
      2378      2378       138       146       212
      1521      1521       102        85       145
      1907      1907        64       110       132
       725       725        62        38       115
      1772      1772        34       101        36
      2426      2426        20       151       137
      3110      3110        29       216        36
       356       356        92        18       188
      2549      2549        77       160       190
      2300      2300         2       140       219
      2966      2966        49       201       188
      2505      2505       140       157       200
       733       733       115        38       149
      2605      2605        46       165       134
      1441      1441       158        79       191
       693       693        86        36       100
       365       365        18        19       174
      1817      1817        57       104       160
      1814      1814        48       104       170
      1325      1325        17        72       190
       813       813        13        43        95
      2531      2531        53       159       219
      1383      1383         5        76        73
      2352      2352        34       144        51
       911       911       124        48       160
      3194      3194       147       224       181
      3190      3190        54       224       147
       456       456        92        23       208
       873       873       129        46       228
      1851      1851        47       106       107
      2051      2051       109       121       114
      1179      1179        38        62       115
      3030      3030        53       207        63
      2866      2866        62       191        94
      1141      1141        88        60       153
       316       316       109        16       196
      2481      2481        49       155       206
      2929      2929       104       197       222
      2135      2135       171       127       178
      1133      1133        67        60        88
      1842      1842        28       106        47
       138       138       112         7       207
         5         5         5         1       167
       403       403        56        21       117
      2862      2862        27       191        79
       451       451        41        23       167
      1606      1606       154        91       200
      2457      2457       122       153       193
      2733      2733        41       177       117
      2786      2786         4       183        67
      2155      2155       100       129       228
       199       199        97        10       116
       822       822        19        43       174
      2588      2588       141       163       184
      1200      1200        24        64        55
      2667      2667        99       170       106
       658       658        85        34       101
      2360      2360        29       145       216
       489       489        17        25       215
       976       976        16        51       225
       739       739        24        39        28
      3116      3116        36       216        74
      1243      1243       148        66       220
       336       336       119        17       180
      3156      3156       110       220       132
      1127      1127        64        59       110
       917       917       160        48       190
      1003      1003       171        52       204
      1794      1794        45       103       148
      1738      1738       106        99       182
      2390      2390        66       148       136
      2658      2658        89       169       108
      2413      2413        42       150        75
      1601      1601        32        91       223
      3173      3173       133       222       197
      1534      1534        93        86       100
      2833      2833        18       188       199
       185       185        45        10        59
       721       721        27        38       149
      2692      2692        35       173       162
       201       201        97        10       185
      2119      2119        30       126       117
      2853      2853        48       190       124
      1744      1744       133        99       170
      3109      3109        29       216        31
      2960      2960       154       200       219
      1928      1928       160       111       187
      2725      2725        38       176       214
       278       278         3        15        94
       519       519        38        27       164
      1764      1764        86       100       129
       112       112       117         6       186
       205       205        82        11       130
       160       160       150         8       192
      3183      3183        78       223       203
      2477      2477        21       155       206
        83        83         1         5       167
      1803      1803       118       103       148
      1913      1913       132       110       135
       131       131        53         7       207
       439       439       119        22       167
      3105      3105        11       215        82
       684       684        33        36       100
       852       852        49        45       103
      2874      2874         8       192       121
      1451      1451        61        80       121
      3078      3078        96       212       146
       468       468        55        24        80
       474       474        64        24       210
      2849      2849       154       189       228
      2994      2994        91       203       128
      2850      2850       157       189       228
      1168      1168       194        61       218
       159       159       114         8       225
      2356      2356        51       144       225
      1220      1220        90        65       105
       291       291        94        15       224
      1354      1354        31        74        98
      2954      2954        91       200       157
        14        14        73         1       167
      1160      1160        80        61       175
      1456      1456       143        80       210
       536       536        39        28       221
       406       406        56        21       177
      2286      2286        81       139        93
      2856      2856        72       190       124
      2946      2946       188       199       201
      2516      2516        14       158       161
      1138      1138        67        60       227
       989       989        29        52       102
       958       958        78        50        89
      1892      1892       121       109       143
      1888      1888        16       109       143
      2038      2038        48       120       124
      3075      3075        54       212       146
      1962      1962         8       114       121
       526       526       113        27       164
       308       308        51        16       209
      1474      1474        11        82       176
      1576      1576        68        89        76
      2975      2975         4       202       217
      3025      3025         2       207        63
      3040      3040        41       208        68
       867       867       100        46       129
       577       577        56        30       146
       134       134        63         7       193
      1566      1566       159        88       172
      1771      1771        33       101       145
      1760      1760        36       100        86
      2125      2125         9       127       178
      2008      2008       126       117       177
       302       302        34        16       196
      2243      2243       103       136       148
      1266      1266        87        68       169
      3050      3050       131       209       196
      2245      2245       103       136       163
       730       730        82        38       149
      1446      1446        24        80       210
      3013      3013        45       206        49
      1425      1425        14        79       158
       310       310        85        16       109
       617       617        91        32       159
       643       643       101        33       129
      1809      1809       136       103       206
       218       218       142        11       214
      2073      2073       153       122       193
      2741      2741        37       178       127
      2021      2021       155       118       184
      3225      3225        46       228       129
      1175      1175        27        62        94
      2540      2540        48       160       104
      2635      2635        13       168       142
      2976      2976         6       202        68
      1979      1979        15       115       149
      1718      1718        31        98       198
      2455      2455        88       153       122
      2230      2230        59       135       148
       501       501        57        26        73
      1560      1560        60        88       172
      2548      2548        77       160       111
      2795      2795        21       184        56
      1435      1435        94        79       191
      2156      2156        11       130       131
       126       126        44         7       207
       906       906       120        48       160
      2392      2392       103       148       135
      2402      2402        37       149        38
      2687      2687        88       172       159
      2451      2451        53       153       193
      3062      3062       114       210       121
      1584      1584        28        90        70
      1867      1867        75       107       182
       239       239        69        12       112
      3196      3196         8       225        51
      1935      1935         7       112       151
      1320      1320        17        72       111
      1011      1011        88        53       153
      1308      1308        66        71       165
      1715      1715        31        98        81
      2484      2484       118       155       206
       710       710        54        37       149
       947       947        32        50        76
      1788      1788        85       102       204
      1876      1876        50       108        87
      3145      3145        53       219       200
       593       593        29        31       198
      1805      1805       135       103       136
      1961      1961         8       114        75
      3129      3129        61       218        97
      3192      3192        58       224       147
      1284      1284         8        69       225
       622       622       108        32       200
      1866      1866        75       107       106
      2708      2708        97       174       168
      1187      1187         2        63       151
      1517      1517        29        85       102
      1152      1152       153        60       227
       287       287        62        15       224
       823       823        95        43       125
       569       569         6        30        81
       748       748        64        39       106
      2060      2060       192       121       210
      1170      1170        15        62        38
       941       941       155        49       195
      1237      1237       110        66       220
       353       353        49        18       188
      1629      1629        74        93       139
      1271      1271        89        68       202
      2417      2417        75       150       114
       944       944       195        49       201
       784       784        68        41       208
       616       616        91        32       108
       698       698       100        36       145
       798       798         8        42       133
      2238      2238       110       135       116
      2343      2343       109       143       194
      2611      2611         9       166       204
      1264      1264        41        68       217
       260       260       168        13       215
       669       669        86        35       162
      1440      1440       120        79       191
       343       343        19        18        95
      2944      2944       177       199       188
      1847      1847        39       106        99
        85        85        23         5        73
      2278      2278       146       138       198
      2719      2719         9       176        38
       524       524        62        27       180
      1009      1009         7        53       219
      1873      1873        32       108       159
       306       306        51        16       109
       787       787       117        41       199
      2141      2141        47       128        90
       844       844        10        45       116
      3032      3032        63       207       140
      1878      1878        50       108       169
      2930      2930       133       197       222
      1594      1594        70        90       128
      2070      2070       123       122       153
      3073      3073        54       212        96
      3045      3045        16       209       196
      3130      3130        61       218       152
      2387      2387       115       147       224
      1632      1632        86        93        98
      2138      2138        26       128        90
      2560      2560        35       162       136
      1948      1948        27       113       124
      2544      2544        57       160       104
      2375      2375        54       146       212
        51        51        83         3       123
       376       376        49        19        97
      2553      2553        48       161        84
       486       486        17        25        82
      2495      2495       146       156       186
      2582      2582       118       163       184
      2216      2216        35       134        66
      2790      2790        60       183       205
      1345      1345         5        73        26
      2822      2822         1       187        72
       401       401       137        20       151
       771       771       112        40       225
       433       433        92        22       179
       492       492        82        25       215
      1029      1029        37        54       212
       845       845        10        45       185
      2508      2508       154       157       200
      1743      1743       107        99       197
       591       591        29        31        98
      1182      1182        94        62       191
      1509      1509        69        84       158
      2049      2049        80       121       192
      1786      1786        52       102       204
      2713      2713        55       175        61
      2953      2953        91       200       154
      1101      1101       104        57       170
      2059      2059       143       121       210
       570       570         6        30       126
      2534      2534        88       159       219
       248       248        43        13       142
       862       862        35        46       100
       387       387        33        20       151
      1045      1045       212        54       224
      1869      1869        99       107       182
      2095      2095       113       124       120
      3071      3071       196       211       213
      1150      1150       123        60       227
      2410      2410         8       150       114
       437       437        95        22       179
      1487      1487         3        83        14
       977       977        34        51       144
      1479      1479        25        82       214
      2992      2992        90       203       128
       267       267        44        14        79
      1234      1234       110        66       134
      2168      2168       194       130       211
      1427      1427        83        79        94
      2183      2183       194       131       209
      1868      1868        99       107       106
      1825      1825       170       104       197
      3207      3207         3       226       122
      1800      1800       116       103       206
       543       543        90        28       221
       480       480       107        24       210
       751       751       106        39       107
      1612      1612        18        92        22
       547       547        31        29        52
       499       499        47        26        78
       169       169        52         9       127
      1944      1944        44       112       151
       724       724        62        38        82
      2892      2892        61       194       131
      1880      1880        87       108       159
       211       211       130        11       142
       311       311        85        16       196
      1165      1165       143        61       218
      2288      2288        81       139       141
      1050      1050        10        55        80
      2359      2359        29       145       101
      2479      2479        49       155       184
      2941      2941        41       199       177
      1186      1186         2        63       137
       644       644       101        33       137
      1575      1575        50        89       208
      2357      2357        29       145        36
      1106      1106        54        58       224
        61        61       123         3       181
       659       659        85        34       144
      2745      2745        54       178       212
      1815      1815        48       104       197
      2116      2116        21       126        56
      2002      2002        21       117       126
      2454      2454        60       153       193
      2985      2985        65       203       128
      2709      2709        10       175        55
      1382      1382         5        76        50
       614       614        50        32       219
      1310      1310        70        71       105
      2129      2129        37       127       178
      1864      1864        39       107       182
      2019      2019       136       118       206
      1296      1296        65        70        90
       161       161       150         8       225
      2910      2910       177       195       201
       430       430        92        22        95
      1260      1260        41        68        89
      1263      1263        41        68       208
       342       342        19        18        92
      1586      1586        28        90       203
      2143      2143        78       128        90
      1706      1706       168        97       185
      2376      2376       138       146       156
      1485      1485       176        82       215
       701       701       101        36       216
       369       369        43        19        97
       720       720        27        38       115
        50        50        83         3       122
      2235      2235       103       135       110
      1863      1863        39       107       106
       235       235        44        12        69
      2480      2480        49       155       195
      2499      2499         2       157       154
      2668      2668       104       170       106
      1334      1334       124        72       190
      2576      2576        56       163       139
      2475      2475        21       155       184
       806       806        84        42       150
      2989      2989        78       203       128
      2657      2657        87       169       108
      1966      1966        75       114       121
       223       223       213        11       214
      2443      2443         7       153        53
      1684      1684       138        96       178
      2651      2651        50       169        89
      2380      2380       156       146       212
      2187      2187        28       132        64
      2740      2740        37       178        96
      1723      1723        81        98        93
       742       742        24        39       107
       631       631        20        33        36
       962       962        89        50       108
      2868      2868        79       191        94
      1125      1125        55        59       116
      2530      2530        53       159       172
       923       923       190        48       197
      1751      1751        33       100        36
       625       625       159        32       200
      1202      1202        24        64       110
      2370      2370        30       146       186
      2859      2859       111       190       160
      2880      2880       114       192       121
       863       863        35        46       129
      1240      1240       134        66       220
      2083      2083       122       123       181
       807       807        84        42       222
      2556      2556        84       161       158
       385       385        33        20       137
       629       629       200        32       223
      2831      2831        18       188        23
        53        53        83         3       226
      2546      2546        57       160       190
      1529      1529        36        86       100
      2476      2476        21       155       195
      2527      2527        32       159       219
      2900      2900       143       194       152
       182       182       166         9       214
      1716      1716        31        98        93
      1255      1255        87        67       183
      2646      2646       152       168       174
       647       647        16        34        51
      1662      1662        22        95        43
      1812      1812        48       104        99
      1949      1949        27       113       164
       878       878        26        47        57
      2897      2897       130       194       152
      3014      3014        45       206       103
       729       729        82        38       115
        55        55        94         3       123
      1020      1020       153        53       207
      1391      1391        50        76        78
      1984      1984        62       115       149
      1780      1780        29       102        52
      2154      2154        46       129       228
      1348      1348        26        73        76
      2388      2388        66       148       103
      1773      1773        34       101       145
      2967      2967        49       201       195
       514       514        17        27       164
       572       572         6        30       146
      3112      3112        29       216       145
      1048      1048        10        55        61
      2202      2202        42       133       150
       991       991        29        52       166
      2179      2179       130       131       211
       101       101         4         6       117
      1610      1610       200        91       223
      1235      1235       110        66       135
       548       548        31        29        85
      1377      1377       114        75       210
      1115      1115       205        58       224
       414       414       126        21       155
       656       656        51        34       101
      2703      2703        19       174        43
      1450      1450        55        80       210
      2982      2982        65       203        78
      2758      2758       119       179       187
      2555      2555        48       161       222
      1510      1510        69        84       161
      2943      2943        41       199       201
      1701      1701        19        97       175
      2089      2089        48       124       164
        66        66         6         4       186
      3091      3091       166       213       211
      1978      1978        15       115       147
       270       270        44        14       158
        95        95        76         5       167
      1533      1533        74        86       173
       648       648        16        34        85
      2482      2482       118       155       184
      2543      2543        57       160        77
      2877      2877        51       192       121
      3178      3178        32       223       203
         6         6         5         1       187
      3226      3226        46       228       157
       296       296       147        15       224
      2205      2205        42       133       222
      3131      3131        61       218       168
      2408      2408         8       150        42
      2446      2446         7       153       122
      1288      1288        12        69       225
       428       428         1        22       179
      1681      1681       127        96       198
      1882      1882        87       108       172
      2488      2488        54       156        58
      2690      2690        35       173        93
       129       129        53         7       153
       294       294       115        15       224
       375       375        45        19       185
      1466      1466        98        81       138
      1051      1051        10        55       175
      2573      2573       148       162       173
      2763      2763        25       180        38
      2794      2794       205       183       227
      1673      1673        31        96       138
      2520      2520        84       158       120
      1006      1006         7        53       153
      2100      2100       164       124       190
      2848      2848       154       189       157
      2973      2973         4       202        68
       849       849        19        45       116
      2636      2636        13       168       152
      1482      1482        38        82       214
      1617      1617        22        92        23
      1622      1622        23        92       167
      2045      2045       124       120       158
      1734      1734       104        99       197
       814       814        13        43       125
      2483      2483       118       155       195
      1911      1911        66       110       135
      1387      1387        26        76        73
      1737      1737       106        99       170
      1964      1964         8       114       192
       410       410       117        21       155
      1380      1380       182        75       210
      2178      2178       130       131       209
      2127      2127        37       127        96
      3011      3011        58       205       183
       899       899       104        48       124
      1267      1267        87        68       202
       441       441       119        22       187
      1583      1583        28        90        65
      1010      1010        88        53       140
      1083      1083       126        56       163
       758       758        12        40       151
      1250      1250        60        67        88
      3216      3216        58       227       123
       463       463        39        24        80
      2437      2437       142       152       168
       781       781        68        41       117
        54        54        94         3       122
      2040      2040        79       120       113
       850       850        19        45       185
      2136      2136        26       128        47
       175       175       127         9       166
       859       859       116        45       185
      1461      1461        30        81       198
      3211      3211        44       226       193
      1395      1395        78        76        89
      1500      1500        12        84       158
      1992      1992        45       116       135
       834       834        12        44       226
      1123      1123        55        59        64
      1276      1276       169        68       217
       708       708        54        37       127
      1129      1129        64        59       135
       346       346        43        18        49
      2606      2606        71       165       105
      2847      2847       105       189       228
      2500      2500         2       157       189
       881       881        26        47       128
       835       835        14        44       112
      1906      1906        64       110        66
       508       508        76        26        78
      2427      2427        40       151        63
      2593      2593        27       164        72
      2367      2367        30       146        54
      2510      2510       189       157       200
       945       945       195        49       206
       790       790       177        41       199
      1613      1613        18        92        23
      2854      2854        48       190       160
      1469      1469       138        81       139
       381       381       174        19       185
       359       359        95        18       201
       830       830         7        44       226
       891       891        57        47       170
      1908      1908        64       110       135
      2350      2350        20       144       225
      2545      2545        57       160       111
       361       361        18        19        43
       377       377        49        19       174
      1346      1346         5        73        76
      1572      1572        50        89        68
       937       937        45        49       155
       425       425         1        22        95
       280       280         3        15       147
      1229      1229        71        66       110
       665       665        46        35       165
       367       367        43        19        45
      2825      2825        22       187        72
      3047      3047       109       209       131
      1781      1781        29       102        85
      2656      2656        87       169        89
        57        57        94         3       226
      1342      1342         1        73        26
      2693      2693        86       173        93
      2294      2294        98       139       163
      1079      1079        81        56       139
      2320      2320       139       141       162
      3186      3186        15       224        58
        62        62       123         3       226
      2404      2404        37       149       176
       494       494       125        25       215
       162       162       192         8       225
      2773      2773        58       181       224
       432       432        92        22       167
      1525      1525        35        86       100
      1189      1189         7        63       112
      2752      2752        17       179       187
      2857      2857        72       190       160
      2491      2491        54       156       205
       782       782        68        41       177
      2345      2345       121       143       194
      1829      1829        65       105       165
      2260      2260        20       137        33
      2373      2373        54       146       156
      1118      1118        10        59        55
      2912      2912        16       196       204
      3147      3147       140       219       200
       980       980       144        51       192
      2423      2423        20       151        40
        35        35       137         2       207
       177       177       127         9       214
       240       240        84        12       112
      1027      1027        37        54       156
      2841      2841        46       189       105
      3230      3230       157       228       189
       966       966       108        50       223
      2232      2232        66       135       110
       436       436        95        22       167
       618       618        91        32       200
      1176      1176        27        62       115
      2211      2211       150       133       197
      1455      1455       121        80       210
      1635      1635        86        93       173
       579       579        81        30       126
      2649      2649        50       169        68
       743       743        24        39       132
      1159      1159        80        61       143
      2018      2018       136       118       184
      3103      3103        11       215        13
      1059      1059        59        55        80
      2903      2903        21       195       177
      1861      1861        39       107        75
      2435      2435       130       152       194
      2787      2787         4       183       205
       942       942       155        49       201
      1329      1329       111        72       187
      3148      3148       159       219       200
      3080      3080       138       212       146
      2422      2422       133       150       182
      2671      2671        29       171        96
      1818      1818        57       104       170
       447       447         5        23       167
       511       511        17        27        38
       222       222       166        11       215
      1238      1238       134        66       135
      3089      3089       130       213       211
       114       114       117         6       217
      1112      1112       181        58       205
       651       651        20        34        51
      3217      3217        58       227       183
       703       703         9        37        54
       477       477        75        24       210
       963       963        89        50       169
      1039      1039       146        54       224
       689       689        74        36       100
      2836      2836        23       188       199
       472       472        64        24        80
      3150      3150        66       220       110
       564       564       102        29       216
      1795      1795        45       103       206
       957       957        76        50       223
       719       719        27        38        82
       810       810       150        42       222
      1841      1841        28       106        39
       370       370        43        19       174
      1178      1178        38        62        94
       694       694        86        36       101
      2578      2578        56       163       184
      2926      2926        99       197       133
      3137      3137       152       218       175
       997       997       102        52       204
       366       366        18        19       185
       623       623       108        32       219
      1253      1253        87        67        88
      2186      2186        28       132        39
       176       176       127         9       176
      1954      1954        79       113       191
      3158      3158       132       220       221
       797       797         8        42        84
       151       151        51         8       192
       922       922       161        48       222
      1221      1221        90        65       154
      1804      1804       118       103       206
      2757      2757        72       179       187
       560       560        85        29       171
      2996      2996       128       203       223
      2691      2691        35       173       141
      1508      1508        42        84       161
      3195      3195         8       225        40
       193       193        55        10       175
       816       816        18        43        19
       672       672       100        35       134
       652       652        20        34        85
      1313      1313        70        71       220
        32        32       129         2       228
      3077      3077        96       212       138
      2942      2942        41       199       188
      1985      1985       147       115       149
       202       202       116        10       175
      1465      1465        56        81       198
      2323      2323       162       141       163
      1209      1209        55        64       110
       107       107        30         6       126
        88        88        23         5       167
      2063      2063         3       122       153
      2191      2191        39       132        64
       502       502        57        26        76
      2074      2074       153       122       226
        79        79         1         5        23
       421       421       177        21       184
      2161      2161       131       130       152
      1934      1934         7       112        63
      1618      1618        22        92        95
      1753      1753        33       100        86
      1024      1024       207        53       219
      2032      2032        22       119       179
      1917      1917         1       111        77
      2776      2776        75       182       107
       657       657        51        34       144
      1811      1811        48       104        57
      1983      1983        62       115       147
        91        91        73         5        89
      3002      3002       102       204       196
       576       576        56        30       138
      2082      2082        60       123       227
      1324      1324        17        72       187
       685       685        33        36       101
       329       329        27        17       180
      1414      1414        50        78       223
      2919      2919       204       196       211
      1769      1769        33       101        34
      3153      3153        71       220       110
       197       197        59        10       175
       928       928        18        49       155
      2832      2832        18       188        92
      2456      2456        88       153       193
       907       907       120        48       161
      1988      1988        10       116       103
      1721      1721        74        98       139
      2640      2640        97       168       152
      2637      2637        13       168       174
      2494      2494        58       156       205
        59        59       122         3       181
      1968      1968        75       114       192
      2765      2765         3       181        15
      2950      2950        32       200       157
      2385      2385        37       147       115
        65        65         6         4       183
      3087      3087       130       213       166
       556       556        52        29       171
       838       838       112        44       193
      1614      1614        18        92        95
      2222      2222        66       134       165
      2400      2400         9       149       115
       662       662        46        35       100
        86        86        23         5        76
      2805      2805        10       185        19
      2904      2904        21       195       201
      2169      2169       194       130       213
      2472      2472       189       154       200
      2742      2742        37       178       212
      2526      2526        32       159       172
      1604      1604        65        91       203
       795       795       208        41       217
      1311      1311        70        71       134
      2228      2228        59       135       110
      2050      2050        80       121       210
      2432      2432       112       151       137
       581       581        81        30       146
      1782      1782        29       102       196
      1839      1839       154       105       189
      2694      2694        86       173       141
      3139      3139        32       219        53
      2206      2206        99       133       150
      1087      1087       163        56       184
      1218      1218        70        65       203
       869       869       100        46       189
      2666      2666        99       170       104
       137       137       112         7       193
      2681      2681        67       172       108
      1797      1797       116       103       135
      2333      2333        61       143       109
      2420      2420       114       150       133
      1060      1060        59        55       175
      1399      1399         1        77       160
      1489      1489         3        83        94
      1140      1140        88        60       123
      2251      2251       141       136       162
      2133      2133        96       127       171
      2046      2046        80       121       109
       592       592        29        31       171
       885       885        28        47       106
      2036      2036        48       120        79
         7         7        22         1        73
      3170      3170        48       222       161
      3097      3097        11       214        82
      2938      2938        96       198        98
      1233      1233        71        66       220
      1696      1696        10        97       175
       481       481        13        25        17
      2918      2918       204       196       209
      1072      1072        21        56       184
      2030      2030        22       119        95
       608       608       171        31       216
       427       427         1        22       167
       894       894        90        47       170
      3227      3227        46       228       189
      2159      2159        11       130       211
      1068      1068        21        56        81
      2209      2209        99       133       222
      2467      2467       105       154       157
      2911      2911        16       196       102
       349       349        43        18       188
      3033      3033         5       208        23
      2920      2920       209       196       211
      2643      2643       142       168       152
       483       483        13        25       125
      3006      3006       196       204       213
      2362      2362        36       145       101
      1005      1005         7        53       140
      1303      1303        90        70       221
      2728      2728       149       176       214
      2798      2798        21       184       163
      3007      3007         4       205        58
      1026      1026        37        54       146
      1585      1585        28        90       128
      1244      1244         4        67        60
       264       264        12        14        83
       788       788       117        41       208
      2878      2878       109       192       114
      1638      1638        98        93       173
      2860      2860       124       190       160
      1692      1692       198        96       212
       615       615        50        32       223
      2312      2312        93       141       139
       799       799         8        42       150
       249       249        43        13       168
      1835      1835        71       105       154
      1648      1648        15        94        79
      1637      1637        98        93       141
      2680      2680        67       172        88
      1173      1173        15        62       191
      2203      2203        42       133       182
      1154      1154        55        61        80
      1596      1596       128        90       203
      1776      1776        16       102        52
      1409      1409        26        78       203
      2308      2308       200       140       207
       981       981       144        51       225
      2737      2737       117       177       199
      2076      2076         3       123        60
       626       626       159        32       219
       750       750        64        39       132
      3209      3209        44       226        83
       250       250        43        13       174
      2394      2394       103       148       162
      2303      2303        53       140       207
       106       106        30         6       117
      1013      1013        88        53       207
      3003      3003       102       204       213
      3208      3208         3       226       193
       507       507        73        26       128
      2662      2662        47       170       106
       407       407        56        21       184
       825       825       125        43       174
      1298      1298        65        70       221
      1600      1600        32        91       203
       246       246        25        13       215
      2622      2622       204       166       214
       819       819        18        43       174
       800       800         8        42       222
      1343      1343         1        73        76
       884       884        28        47        90
       256       256       142        13       168
      1838      1838       154       105       165
      3059      3059        75       210       121
      1230      1230        71        66       134
      1194      1194       112        63       151
       396       396        40        20       151
       261       261       174        13       215
      2240      2240       116       135       148
      2509      2509       154       157       228
      1069      1069        21        56       126
      1246      1246         4        67        88
      1643      1643         3        94        62
        36        36       137         2       228
       868       868       100        46       165
      1139      1139        88        60       122
      3115      3115        31       216       145
       768       768        69        40       225
      1853      1853        99       106       107
      1710      1710       174        97       218
      2448      2448        53       153        60
         3         3         5         1        77
      1496      1496        94        83       226
       558       558        85        29       102
      1053      1053        24        55        61
      1054      1054        24        55        64
      1471      1471       139        81       198
      3018      3018        49       206       118
       257       257       142        13       174
      2247      2247       118       136       148
      2759      2759        17       180        25
      1535      1535        93        86       173
      2347      2347        20       144        34
      1762      1762        46       100        86
       640       640       100        33       101
      2249      2249       118       136       163
      1731      1731       104        99       133
      1775      1775        16       102        29
       281       281         3        15       181
      2949      2949        32       200       154
      2197      2197        64       132       221
      2642      2642        97       168       218
       988       988         9        52       204
      2469      2469       105       154       200
      1142      1142        88        60       183
      1213      1213       110        64       132
      1546      1546       108        87       169
      2803      2803       118       184       163
      3068      3068       131       211       209
      2047      2047        80       121       114
      1339      1339       179        72       190
      2003      2003        21       117       177
      1946      1946        27       113        79
      1653      1653        62        94       191
      1688      1688       171        96       198
       152       152        51         8       225
      1145      1145       122        60       153
      2778      2778        75       182       150
      3031      3031        53       207       140
      1819      1819        57       104       197
      1128      1128        64        59       116
      1514      1514        16        85       102
      2265      2265        63       137       151
       796       796         8        42        69
      1953      1953        79       113       164
      3117      3117        36       216       145
      2305      2305       157       140       200
      1120      1120        10        59       110
      2264      2264        33       137       151
      2055      2055       114       121       143
       650       650        16        34       144
       265       265        12        14        84
      2122      2122         9       127        52
      2449      2449        53       153        88
      1293      1293        42        69       225
       404       404        56        21       126
       212       212       130        11       166
      1896      1896       131       109       192
      1848      1848        39       106       107
      1430      1430        83        79       158
       936       936        19        49       206
      2299      2299         2       140       207
       874       874       165        46       189
       943       943       155        49       206
       298       298        34        16        51
       762       762        20        40       144
        17        17        77         1       167
      1364      1364        93        74       216
      2097      2097       113       124       190
      2218      2218        35       134       162
       677       677       134        35       165
       178       178       149         9       166
      1542      1542        68        87       108
      2617      2617        11       166       214
      1227      1227       105        65       203
      2034      2034        95       119       179
      1652      1652        62        94        83
       388       388        34        20        40
       919       919       160        48       222
      1724      1724        81        98       139
        82        82         1         5        89
        84        84         1         5       208
       554       554        52        29       102
      1196      1196       137        63       151
      2464      2464        91       154       157
      1552      1552        53        88        60
      2006      2006        41       117       177
       565       565       145        29       171
      1453      1453        61        80       210
       109       109        30         6       202
       900       900       104        48       160
       545       545       106        28       221
      2309      2309       200       140       219
       276       276        84        14       158
       953       953        76        50        78
      3060      3060        80       210       114
         4         4         5         1       111
      1493      1493        14        83       226
       383       383        33        20        40
      2079      2079         3       123       227
      2497      2497       186       156       205
      1777      1777        16       102        85
      2679      2679        67       172        87
       450       450        41        23        92
      2641      2641        97       168       174
      1970      1970       121       114       150
       400       400       137        20       144
      2872      2872         8       192       109
      2977      2977         6       202        87
      2995      2995        91       203       223
        46        46        15         3       123
      2321      2321       139       141       163
      1224      1224        91        65       154
      1965      1965         8       114       210
       434       434        92        22       187
      1193      1193       112        63       137
      1181      1181        94        62       115
      1477      1477        25        82        38
       324       324        25        17       180
      1608      1608       154        91       223
       531       531       180        27       191
      1256      1256        88        67       172
      1157      1157        55        61       194
      3123      3123        41       217        68
       792       792       177        41       217
      2743      2743        54       178        96
      2117      2117        21       126       117
      2383      2383        15       147       115
       386       386        33        20       144
      3197      3197         8       225        69
      1837      1837        71       105       189
      2839      2839        92       188       201
       214       214       130        11       214
      3026      3026         2       207       140
      1975      1975       192       114       210
       741       741        24        39       106
      1370      1370        24        75       210
      2296      2296         2       140        53
       438       438        95        22       187
       571       571         6        30       138
      2781      2781        99       182       150
       584       584       126        30       146
       164       164        37         9       127
      1245      1245         4        67        87
       812       812        13        43        19
       344       344        19        18       188
      2414      2414        42       150       114
      2895      2895       130       194       131
      2997      2997        52       204       102
       274       274        83        14        84
      1052      1052        24        55        59
       820       820        19        43        95
       700       700       101        36       145
      1994      1994        59       116       135
      3065      3065       130       211       209
      3009      3009         4       205       183
       295       295       147        15       181
      2335      2335        61       143       131
      2554      2554        48       161       158
       865       865        35        46       189
      1624      1624        95        92       167
       188       188        45        10       175
       675       675       100        35       173
       833       833        12        44       193
      1502      1502        14        84        42
       258       258       142        13       215
        13        13        73         1       111
       589       589        29        31        74
       293       293       115        15       181
      2945      2945       177       199       201
       952       952        32        50       223
      1295      1295        65        70        71
      3034      3034         5       208        41
      1333      1333       124        72       187
       146       146        42         8       192
      1646      1646         3        94       191
      2963      2963        18       201       188
      1286      1286        12        69        42
      2883      2883         7       193       153
      1559      1559        60        88       159
       325       325        27        17        72
      3214      3214       122       226       193
      1666      1666        43        95        92
       619       619        91        32       219
      2331      2331       152       142       168
      2379      2379       156       146       186
       829       829         7        44       193
      3056      3056        24       210       121
      1192      1192         7        63       207
      1506      1506        42        84        69
      1505      1505        14        84       161
      2936      2936        81       198        98
       909       909       120        48       197
      1679      1679       127        96       171
      1082      1082       126        56       139
      2915      2915       102       196       204
      2466      2466        91       154       200
      3036      3036         5       208        89
      1080      1080        81        56       163
       469       469        55        24       107
      2921      2921        48       197        99
      3124      3124        41       217       117
      1204      1204        39        64        55
      2674      2674        31       171        96
      1540      1540        67        87       172
      3164      3164       132       221       220
       360       360       188        18       201
      3106      3106        13       215        25
      1355      1355        31        74       216
      1922      1922        72       111       160
      2729      2729        21       177        41
       712       712       127        37       147
       443       443       167        22       187
      2594      2594        27       164       113
       674       674       100        35       165
       746       746        28        39       107
      2397      2397       136       148       162
      3133      3133        97       218       152
        45        45        15         3       122
      2663      2663        57       170        99
       605       605        98        31       198
      1136      1136        67        60       153
      2052      2052       109       121       143
      2013      2013       103       118       163
      2068      2068        60       122       193
       179       179       149         9       176
      1947      1947        27       113       120
      2933      2933        31       198        98
      1645      1645         3        94        83
      1392      1392        50        76        89
      1447      1447        55        80        61
        38        38       140         2       207
      2676      2676        52       171        96
       737       737       149        38       180
      3079      3079        96       212       178
      3199      3199        40       225        51
      2110      2110        95       125       119
      2570      2570       136       162       173
       831       831        12        44        14
       522       522        62        27       113
      1434      1434        94        79       158
       561       561        85        29       216
      1836      1836        71       105       165
      3085      3085        11       213       204
        29        29       129         2       140
      2113      2113         6       126        56
      2873      2873         8       192       114
      1291      1291        40        69       225
       984       984         9        52       102
      2568      2568       136       162       141
       259       259       168        13       174
       496       496        47        26        57
      1171      1171        15        62        94
      2888      2888       122       193       153
      3171      3171        48       222       197
      3053      3053        24       210        75
      1783      1783        29       102       204
      1792      1792        45       103       135
        64        64         6         4        67
      3076      3076        54       212       178
       791       791       177        41       208
      1184      1184         2        63         7
      2126      2126        37       127        52
       827       827         7        44        14
      2088      2088        48       124       120
      1806      1806       135       103       148
       216       216       142        11       166
       635       635        20        33       137
       842       842        10        45        49
      2468      2468       105       154       189
       864       864        35        46       165
      1169      1169        15        62        27
      1285      1285        12        69        40
      1898      1898       143       109       192
        48        48        15         3       226
      2830      2830       111       187       179
       982       982       192        51       225
       236       236        44        12        84
      3090      3090       166       213       204
       624       624       108        32       223
      1378      1378       150        75       182
      2319      2319       136       141       173
      2755      2755        22       179       187
      1824      1824       160       104       197
      1588      1588        47        90        70
      2902      2902        21       195       155
      1801      1801       118       103       135
      2842      2842        46       189       154
       654       654        20        34       144
      2354      2354        40       144        51
      1008      1008         7        53       207
      2425      2425        20       151       112
      1763      1763        46       100       129
      1161      1161        80        61       194
      1553      1553        53        88        67
      1367      1367        24        75       114
      1845      1845        28       106       170
      1312      1312        70        71       165
      1012      1012        88        53       159
      1726      1726        93        98       139
      2338      2338        80       143       121
       475       475        75        24        80
      2221      2221        66       134       162
      2207      2207        99       133       182
      2431      2431        63       151       137
       378       378        49        19       185
       331       331        72        17       164
       347       347        43        18        92
       714       714       127        37       178
      1778      1778        16       102       196
      1659      1659        18        95        92
      3206      3206         3       226        83
       967       967       169        50       223
       243       243        25        13       142
      2255      2255       162       136       163
      1476      1476        11        82       215
      1879      1879        50       108       172
      1870      1870       106       107       182
       557       557        52        29       216
      3049      3049       109       209       211
      2460      2460        65       154       157
      2562      2562        35       162       148
       204       204       175        10       185
       786       786       117        41       177
      2011      2011       103       118       136
       736       736       149        38       176
       271       271        79        14        83
       998       998       127        52       166
      1980      1980        38       115        62
       887       887        28        47       170
      1990      1990        45       116        59
      2000      2000         6       117       217
      2236      2236       103       135       116
       663       663        46        35       134
      2226      2226        59       135        66
      1424      1424        14        79       120
       429       429         1        22       187
       681       681       165        35       173
      1358      1358        36        74        98
      1530      1530        36        86       173
      1682      1682       127        96       212
      1976      1976        15       115        38
      2584      2584       136       163       141
      1088      1088        26        57        47
       908       908       120        48       190
       970       970         8        51       144
      2200      2200       220       132       221
      2727      2727        82       176       214
       600       600        96        31        98
      2628      2628         5       167        22
       594       594        29        31       216
      2695      2695        86       173       162
       478       478        80        24       107
       960       960        78        50       169
      2411      2411         8       150       133
      2701      2701        13       174        97
      2652      2652        50       169       108
      2898      2898       131       194       143
      3021      3021       103       206       155
      1969      1969        75       114       210
      1217      1217        70        65       154
       500       500        47        26       128
      1822      1822        99       104       197
       304       304        51        16        85
       757       757        12        40       144
      2598      2598       113       164       124
      1148      1148       123        60       153
      1925      1925        77       111       160
      1111      1111       156        58       227
      2670      2670        29       171        52
       994       994       102        52       127
      3052      3052       196       209       211
       738       738       176        38       180
      2772      2772        58       181       123
       876       876       189        46       228
       760       760        20        40        69
       563       563       102        29       171
      2861      2861        27       191        62
        10        10        22         1       167
       855       855        49        45       206
       934       934        19        49       195
      2223      2223        71       134       162
      1886      1886        16       109       121
      2339      2339        80       143       131
      2746      2746        96       178       127
      2344      2344       121       143       131
       690       690        74        36       101
       961       961        78        50       223
      2160      2160        11       130       213
       588       588       146        30       186
       140       140       153         7       207
      1373      1373       107        75       182
      2478      2478        49       155       118
      1548      1548       108        87       202
       371       371        43        19       185
       763       763        20        40       151
      2184      2184       194       131       211
       770       770       112        40       151
      1685      1685       138        96       198
      3100      3100        82       214       166
      2177      2177       130       131       194
      2428      2428        40       151       112
      2768      2768         3       181       224
       171       171        52         9       166
       213       213       130        11       213
      2686      2686        88       172       108
      2835      2835        23       188        92
       716       716       147        37       178
       839       839       112        44       226
      2332      2332        61       143        80
      2152      2152        33       129       228
       200       200        97        10       175
       121       121        44         7        53
      1374      1374       107        75       210
      2927      2927        99       197       222
      1996      1996         6       117        21
      2465      2465        91       154       189
      1730      1730       104        99       107
      2514      2514        14       158        84
      3035      3035         5       208        68
      2801      2801        56       184       163
       147       147        42         8       225
        33        33       137         2       140
      2166      2166       152       130       211
      1678      1678       127        96       138
      1997      1997         6       117        41
      2735      2735        41       177       199
       149       149        51         8       114
      3212      3212        83       226       122
       392       392        34        20       151
      1621      1621        23        92        95
       747       747        28        39       132
      3134      3134        97       218       168
      1557      1557        60        88        67
      1590      1590        47        90       203
      2185      2185       209       131       211
        24        24        63         2       140
       272       272        79        14        84
       578       578        56        30       186
      2121      2121         9       127        37
      3187      3187        15       224       147
      2474      2474        21       155       118
      2974      2974         4       202        87
       118       118       186         6       202
       586       586       138        30       146
      2262      2262        20       137       151
      2405      2405        38       149       115
      2099      2099       120       124       190
      1408      1408        26        78       128
      2721      2721         9       176       149
      2314      2314        93       141       163
       102       102         4         6       126
      1531      1531        74        86        93
       459       459       188        23       208
        94        94        76         5        89
        96        96        76         5       208
        19        19       111         1       167
       393       393        40        20       101
       320       320        25        17        72
       682       682        33        36        74
      1018      1018       140        53       219
      1207      1207        39        64       132
      3020      3020       103       206       118
      1353      1353        31        74        93
      2998      2998        52       204       166
      1351      1351        31        74        36
      1571      1571         5        89       208
       627       627       159        32       223
      1919      1919         1       111       187
      2970      2970       188       201       199
       898       898       104        48       120
      2699      2699        13       174        19
      1887      1887        16       109       131
       210       210        82        11       215
      1445      1445        24        80       143
      2620      2620        52       166       214
       580       580        81        30       138
      2875      2875        51       192       109
      2925      2925        99       197       104
      2105      2105        25       125        43
       890       890        57        47       128
      1084      1084       126        56       184
      1315      1315       105        71       165
       803       803        69        42       150
       372       372        45        19        49
      1897      1897       131       109       209
       704       704         9        37       127
      2501      2501         2       157       200
      1759      1759        36       100        46
      1459      1459        30        81       138
      2809      2809        19       185        97
       173       173        52         9       214
      1031      1031        58        54       146
      2777      2777        75       182       133
      2935      2935        81       198        96
      2190      2190        28       132       221
      2512      2512       200       157       228
      3202      3202        51       225        69
      2542      2542        48       160       190
       355       355        92        18        95
      2489      2489        54       156       146
      1203      1203        24        64       132
       457       457       167        23       188
      3037      3037        23       208        41
      1385      1385         5        76        89
      3180      3180        50       223        91
      2407      2407       115       149       176
      1484      1484       176        82       214
      2393      2393       103       148       136
       948       948        32        50        78
      2987      2987        78       203        90
      1671      1671       119        95       125
      2714      2714        55       175        97
        39        39       140         2       228
       339       339       179        17       180
      1357      1357        36        74        93
      2665      2665        57       170       106
      2923      2923        48       197       133
      1593      1593        65        90       203
      3063      3063       130       211       131
       282       282         3        15       224
      3168      3168        42       222       197
      1174      1174        27        62        38
      3039      3039        23       208        89
       847       847        19        45        49
      1122      1122        10        59       135
       858       858       103        45       206
      1162      1162        80        61       218
      1526      1526        35        86       173
      2372      2372        54       146       138
      1537      1537        67        87        68
      1960      1960       164       113       191
      2523      2523        32       159        53
      1478      1478        25        82       176
      2292      2292        93       139       163
       843       843        10        45       103
      2104      2104        13       125       119
      1259      1259        41        68        87
      1668      1668        43        95       125
      2273      2273        81       138       198
      2433      2433       130       152       142
       539       539        47        28       132
       566       566       145        29       216
      1206      1206        39        64       110
      1280      1280         8        69        12
       968       968         8        51        16
      2905      2905        49       195       155
      2242      2242       103       136       141
      2539      2539        48       160        77
      1075      1075        30        56       139
       172       172        52         9       176
      1219      1219        90        65        91
        99        99       167         5       208
      1930      1930       187       111       190
       332       332        72        17       179
      2748      2748       127       178       212
      3024      3024         2       207        53
      2311      2311        93       141       136
      1574      1574        50        89       169
      2957      2957       140       200       157
      2062      2062         3       122       123
      1746      1746       133        99       197
       390       390        34        20       137
      3191      3191        54       224       181
      3102      3102       166       214       176
      1107      1107        54        58       227
      2153      2153        46       129       100
      2650      2650        50       169        87
      3165      3165        42       222        48
      1258      1258       172        67       183
       307       307        51        16       196
      2276      2276        96       138       198
       696       696        86        36       216
       460       460        39        24        55
      2821      2821         1       187        22
      1261      1261        41        68       169
       973       973        16        51        34
      2591      2591        17       164       113
      2146      2146         2       129        33
      2263      2263        33       137        63
      2780      2780        99       182       133
      2233      2233        66       135       116
      1503      1503        14        84        69
        31        31       129         2       207
      1761      1761        36       100       129
      2964      2964        18       201       195
      2639      2639        97       168       142
      2016      2016       136       118       155
      1185      1185         2        63       112
       880       880        26        47       106
      3142      3142        32       219       200
      2629      2629         5       167        23
      2424      2424        20       151        63
       509       509        76        26       128
       896       896       106        47       170
      1007      1007         7        53       159
      2876      2876        51       192       114
       445       445         5        23        41
      1937      1937        12       112        44
      1587      1587        47        90        65
      3119      3119         6       217        41
       217       217       142        11       213
       464       464        39        24       107
        49        49        83         3        94
      2066      2066        60       122       123
       761       761        20        40       112
       978       978        34        51       192
      1900      1900       192       109       209
      2253      2253       148       136       162
      2972      2972         4       202         6
       233       233        40        12        84
      2750      2750        17       179        72
      2140      2140        47       128        78
      1223      1223        91        65       105
      2496      2496       146       156       205
      3104      3104        11       215        25
      1030      1030        37        54       224
       399       399       101        20       151
       821       821        19        43       125
      1915      1915       135       110       220
       449       449         5        23       208
      1858      1858        24       107        99
      1620      1620        22        92       188
       985       985         9        52       127
      1155      1155        55        61       143
      2137      2137        26       128        78
      1413      1413        50        78       203
      2044      2044       113       120       158
      2702      2702        13       174       168
      2112      2112         6       126        30
      1041      1041       156        54       212
      1198      1198       151        63       207
      2023      2023       163       118       184
       732       732        82        38       180
      2280      2280       198       138       212
      2784      2784       133       182       150
       687       687        33        36       216
      2301      2301        53       140       157
      2541      2541        48       160       111
      3048      3048       109       209       196
      1790      1790        45       103       116
      1796      1796       116       103       118
      1467      1467        98        81       139
      1497      1497        12        84        14
       181       181       166         9       176
      1463      1463        56        81       138
      2295      2295       141       139       163
      2782      2782       107       182       133
      2492      2492        58       156       146
      1365      1365        98        74       216
      2364      2364        85       145       101
       363       363        18        19        49
      1661      1661        18        95       125
       901       901       104        48       161
      1201      1201        24        64        59
       709       709        54        37       147
      1301      1301        71        70       221
      2399      2399         9       149        38
       722       722        27        38       176
      2625      2625         1       167        22
      1153      1153       183        60       227
      2596      2596        72       164       113
        97        97        89         5       167
      1779      1779        16       102       204
       755       755        12        40        69
      2440      2440       168       152       194
        67        67         6         4       202
      1872      1872        32       108        87
      2093      2093        72       124       164
      1616      1616        18        92       188
       330       330        72        17       119
      2118      2118        30       126        56
      1843      1843        28       106        99
       620       620        91        32       223
      1899      1899       143       109       209
      1400      1400        57        77        73
       352       352        49        18        95
        70        70        67         4       186
      1755      1755        35       100        36
      1705      1705       168        97       175
       446       446         5        23        92
       877       877        26        47        28
        87        87        23         5        89
      2732      2732        21       177       199
       666       666        46        35       173
      2808      2808        19       185        45
      1172      1172        15        62       115
       484       484        13        25       180
      3159      3159        28       221        70
       120       120       202         6       217
      2623      2623       213       166       214
      2813      2813         4       186       146
      1568      1568         5        89        68
      1094      1094        47        57       104
      2661      2661        47       170       104
      2865      2865        62       191        79
       752       752       106        39       132
      2065      2065         3       122       226
        15        15        73         1       187
      1813      1813        48       104       160
      2804      2804       155       184       163
      2739      2739        37       178        54
      2956      2956       140       200       154
      1709      1709       174        97       185
      1015      1015       140        53       153
      3193      3193        58       224       181
      1090      1090        26        57       104
      1712      1712       175        97       218
      1874      1874        32       108       169
      1871      1871        32       108        50
      2715      2715        55       175       218
       893       893        90        47       128
      2538      2538        48       160        57
       423       423       184        21       195
       841       841        10        45        19
       395       395        40        20       144
      1338      1338       179        72       187
      1951      1951        79       113       120
      2386      2386        37       147       224
       104       104         4         6       202
       525       525        62        27       191
      2363      2363        36       145       216
       473       473        64        24       107
       731       731        82        38       176
      1628      1628        74        93        98
      2297      2297         2       140       157
       717       717       149        37       178
       590       590        29        31        96
       573       573         6        30       186
      1481      1481        38        82       176
       840       840       193        44       226
      2285      2285        56       139       163
       567       567       171        29       216
      1442      1442        24        80        55
      2317      2317       136       141       162
      3151      3151        66       220       132
       397       397       101        20       137
      2229      2229        59       135       116
      2599      2599        35       165        46
      2463      2463        91       154       105
       319       319        25        17        27
      1326      1326       111        72       124
      2619      2619        52       166       213
      3081      3081       138       212       178
      3038      3038        23       208        68
      3201      3201        40       225       144
       350       350        43        18       201
      2669      2669        29       171        31
      3228      3228       129       228       157
      1889      1889        16       109       192
      2069      2069        60       122       226
      1748      1748       170        99       197
       226       226        14        12        40
       711       711        54        37       178
       773       773       144        40       225
      2829      2829        72       187       179
       237       237        44        12       112
      1527      1527        36        86        74
       520       520        38        27       180
      2158      2158        11       130       194
      1449      1449        55        80       143
      3004      3004       166       204       196
       912       912       124        48       161
       954       954        76        50        89
      1765      1765        20       101        33
      2698      2698       141       173       162
      1251      1251        60        67       172
      1963      1963         8       114       150
        40        40       157         2       207
       221       221       166        11       214
       861       861       185        45       206
      2272      2272        81       138       146
       848       848        19        45       103
        26        26        63         2       207
      2015      2015       103       118       206
      2215      2215       197       133       222
      1573      1573        50        89        76
      1626      1626       167        92       188
      1689      1689       171        96       212
       452       452        41        23       188
      2793      2793        67       183       227
       534       534        39        28       106
      2327      2327        11       142       152
      1210      1210        55        64       132
      2710      2710        10       175        61
      1199      1199        24        64        39
       379       379        97        19       174
      1634      1634        86        93       141
       935       935        19        49       201
      2085      2085       181       123       227
       206       206        82        11       142
      1881      1881        87       108       169
      2959      2959       154       200       157
      2037      2037        48       120       113
       115       115       126         6       186
      1417      1417        76        78       223
      2194      2194        39       132       221
       458       458       167        23       208
       183       183       176         9       214
       420       420       155        21       195
      2595      2595        27       164       124
      2175      2175       109       131       211
       604       604        98        31       171
      2533      2533        88       159       172
       326       326        27        17       119
       740       740        24        39        64
      2506      2506       140       157       228
      2818      2818        30       186       146
       527       527       113        27       180
      2807      2807        10       185        97
      2275      2275        96       138       146
       144       144        42         8       114
        68        68         6         4       205
      1516      1516        29        85        34
      2391      2391        66       148       162
      1289      1289        40        69        42
      2566      2566       134       162       148
      2673      2673        31       171        52
       996       996       102        52       171
      1999      1999         6       117       177
       229       229        14        12        84
      2259      2259         2       137       151
      3154      3154        71       220       132
      1884      1884       159       108       172
      1942      1942        40       112       151
      1061      1061        61        55        64
      2525      2525        32       159       108
       334       334       119        17       164
      1275      1275       169        68       208
      1807      1807       135       103       206
       405       405        56        21       155
      1920      1920         1       111       190
      2571      2571       141       162       148
      1740      1740       107        99       133
       337       337       164        17       179
       266       266        12        14       158
       745       745        28        39       106
      2814      2814         4       186       156
       649       649        16        34       101
      1419      1419       128        78       223
      1321      1321        17        72       124
      1680      1680       127        96       178
      2521      2521        84       158       161
      3042      3042        68       208        89
       964       964        89        50       223
      2955      2955        91       200       219
      2043      2043       113       120       124
         2         2         5         1        73
      1095      1095        47        57       160
       424       424         1        22        92
       165       165        37         9       149
      3120      3120         6       217        68
      1216      1216        70        65       105
      2581      2581       118       163       141
