LAMMPS data file.

    204 atoms
   1172 bonds
   2846 angles
      0 dihedrals
      0 impropers
      1 atom types
   1172 bond types
   2846 angle types
      0 dihedral types
      0 improper types
  -7.845881   7.845881 xlo xhi
  -7.846533   7.846533 ylo yhi
  -0.100000   0.100000 zlo zhi
0.0 0.0 0.0 xy xz yz

Masses # ['atom_id', 'mass']

1 1000000.0

Atoms # ['atomID', 'moleculeID', 'atomType', 'charge', 'x', 'y', 'z']

      1      1      1   0.000000  -1.881340  -5.317790   0.000000
      2      1      1   0.000000  -2.077620  -3.923890   0.000000
      3      1      1   0.000000  -3.940870   7.782000   0.000000
      4      1      1   0.000000  -7.815560  -5.198040   0.000000
      5      1      1   0.000000   0.608790   6.746990   0.000000
      6      1      1   0.000000   3.693370  -0.371719   0.000000
      7      1      1   0.000000  -1.659340  -1.935500   0.000000
      8      1      1   0.000000  -1.853040  -0.502775   0.000000
      9      1      1   0.000000  -5.278480   5.938170   0.000000
     10      1      1   0.000000   4.901790   5.066900   0.000000
     11      1      1   0.000000   2.953040  -3.853600   0.000000
     12      1      1   0.000000   6.143870  -6.734650   0.000000
     13      1      1   0.000000   4.456150  -3.574430   0.000000
     14      1      1   0.000000  -7.550130  -7.683340   0.000000
     15      1      1   0.000000  -5.073620  -0.717754   0.000000
     16      1      1   0.000000  -6.833310  -6.249790   0.000000
     17      1      1   0.000000  -0.654577   4.660980   0.000000
     18      1      1   0.000000  -0.413402  -5.333100   0.000000
     19      1      1   0.000000  -2.106970   2.389220   0.000000
     20      1      1   0.000000  -3.016180   5.623530   0.000000
     21      1      1   0.000000   6.576400   2.795430   0.000000
     22      1      1   0.000000   5.550620   1.643170   0.000000
     23      1      1   0.000000   1.595600   4.905030   0.000000
     24      1      1   0.000000  -4.614890  -3.560850   0.000000
     25      1      1   0.000000  -2.941410  -1.583700   0.000000
     26      1      1   0.000000   1.848930   2.115650   0.000000
     27      1      1   0.000000  -3.692000   4.188210   0.000000
     28      1      1   0.000000  -4.047770  -5.591920   0.000000
     29      1      1   0.000000   3.279070  -1.701460   0.000000
     30      1      1   0.000000   5.027280  -0.600620   0.000000
     31      1      1   0.000000  -0.206658   3.327030   0.000000
     32      1      1   0.000000   5.739610   3.863220   0.000000
     33      1      1   0.000000   7.133280   4.225000   0.000000
     34      1      1   0.000000   4.231260   1.842170   0.000000
     35      1      1   0.000000   0.672516   0.068512   0.000000
     36      1      1   0.000000  -7.512820  -2.637880   0.000000
     37      1      1   0.000000   3.721270   5.837910   0.000000
     38      1      1   0.000000   1.854040  -5.848960   0.000000
     39      1      1   0.000000  -4.855140   3.134780   0.000000
     40      1      1   0.000000  -5.069450   4.553550   0.000000
     41      1      1   0.000000   6.355040  -0.945335   0.000000
     42      1      1   0.000000  -2.335550   0.895753   0.000000
     43      1      1   0.000000  -6.336210  -1.250500   0.000000
     44      1      1   0.000000  -5.184900  -2.188150   0.000000
     45      1      1   0.000000   6.880280   1.378330   0.000000
     46      1      1   0.000000  -7.260080  -0.191899   0.000000
     47      1      1   0.000000   1.280140   3.457250   0.000000
     48      1      1   0.000000  -5.478700  -5.610410   0.000000
     49      1      1   0.000000   0.963701  -2.406170   0.000000
     50      1      1   0.000000  -4.949630   0.769306   0.000000
     51      1      1   0.000000   6.743200  -3.121950   0.000000
     52      1      1   0.000000  -6.299660   5.054640   0.000000
     53      1      1   0.000000   5.980130   0.344946   0.000000
     54      1      1   0.000000  -6.619860  -3.593210   0.000000
     55      1      1   0.000000   4.676220   0.596703   0.000000
     56      1      1   0.000000  -3.341060  -3.682350   0.000000
     57      1      1   0.000000   2.967020  -6.473330   0.000000
     58      1      1   0.000000   1.665970  -3.548140   0.000000
     59      1      1   0.000000  -1.652270   5.343170   0.000000
     60      1      1   0.000000  -6.699870   1.868130   0.000000
     61      1      1   0.000000  -2.504850   3.641510   0.000000
     62      1      1   0.000000  -0.669658   6.130910   0.000000
     63      1      1   0.000000   7.471850  -6.532510   0.000000
     64      1      1   0.000000  -0.529807  -0.187744   0.000000
     65      1      1   0.000000   0.418585   5.497150   0.000000
     66      1      1   0.000000  -3.058150  -0.209889   0.000000
     67      1      1   0.000000   6.796450  -4.373880   0.000000
     68      1      1   0.000000  -7.824060   6.609910   0.000000
     69      1      1   0.000000   2.999990  -5.152640   0.000000
     70      1      1   0.000000   6.984590   5.572490   0.000000
     71      1      1   0.000000   4.966520  -7.321870   0.000000
     72      1      1   0.000000   6.049640   7.658510   0.000000
     73      1      1   0.000000  -6.340550  -7.580800   0.000000
     74      1      1   0.000000  -4.330270   1.904570   0.000000
     75      1      1   0.000000  -0.961455  -7.600880   0.000000
     76      1      1   0.000000  -0.391336  -2.222300   0.000000
     77      1      1   0.000000   1.985180  -1.598100   0.000000
     78      1      1   0.000000   0.832152  -4.652800   0.000000
     79      1      1   0.000000   3.443040   0.883795   0.000000
     80      1      1   0.000000  -7.222130   4.176330   0.000000
     81      1      1   0.000000  -3.384290  -6.716540   0.000000
     82      1      1   0.000000  -0.099433  -6.658440   0.000000
     83      1      1   0.000000   7.839920   2.174650   0.000000
     84      1      1   0.000000  -4.050670   6.470600   0.000000
     85      1      1   0.000000  -7.499120   5.360900   0.000000
     86      1      1   0.000000   2.450170   6.045340   0.000000
     87      1      1   0.000000   3.062040   7.182680   0.000000
     88      1      1   0.000000  -3.473000   2.816210   0.000000
     89      1      1   0.000000   7.214790  -1.829000   0.000000
     90      1      1   0.000000   0.686128   1.455620   0.000000
     91      1      1   0.000000   1.119010  -6.943360   0.000000
     92      1      1   0.000000  -1.301180  -6.426820   0.000000
     93      1      1   0.000000   7.190740   0.075399   0.000000
     94      1      1   0.000000  -4.653060  -6.751750   0.000000
     95      1      1   0.000000   6.629700  -5.574360   0.000000
     96      1      1   0.000000   5.119010   2.863450   0.000000
     97      1      1   0.000000   2.200120  -7.525790   0.000000
     98      1      1   0.000000   3.950800  -5.663180   0.000000
     99      1      1   0.000000  -1.964860   6.479450   0.000000
    100      1      1   0.000000  -6.117860   3.779110   0.000000
    101      1      1   0.000000   3.254530   3.673930   0.000000
    102      1      1   0.000000   4.890870  -4.853560   0.000000
    103      1      1   0.000000  -2.953450   6.986340   0.000000
    104      1      1   0.000000   3.493800  -2.831120   0.000000
    105      1      1   0.000000  -2.766110  -7.629110   0.000000
    106      1      1   0.000000  -3.766290  -2.600120   0.000000
    107      1      1   0.000000   4.444620   3.887860   0.000000
    108      1      1   0.000000   3.141750   2.339510   0.000000
    109      1      1   0.000000   2.537680   0.197275   0.000000
    110      1      1   0.000000  -3.017280  -4.827890   0.000000
    111      1      1   0.000000   5.729340  -3.889720   0.000000
    112      1      1   0.000000   2.825840   4.862820   0.000000
    113      1      1   0.000000   0.657440  -5.786460   0.000000
    114      1      1   0.000000  -3.845310  -0.864492   0.000000
    115      1      1   0.000000   1.097550  -1.092360   0.000000
    116      1      1   0.000000  -0.861826  -3.393760   0.000000
    117      1      1   0.000000   0.501582   4.335820   0.000000
    118      1      1   0.000000  -1.280170   1.508420   0.000000
    119      1      1   0.000000  -0.315934   1.929950   0.000000
    120      1      1   0.000000  -7.657850   0.977547   0.000000
    121      1      1   0.000000  -6.601680   6.193540   0.000000
    122      1      1   0.000000   5.491000  -2.796140   0.000000
    123      1      1   0.000000   7.773730   3.262270   0.000000
    124      1      1   0.000000   0.157101  -1.224130   0.000000
    125      1      1   0.000000   1.660710   0.829346   0.000000
    126      1      1   0.000000  -0.287840   0.910059   0.000000
    127      1      1   0.000000   4.917740  -6.277330   0.000000
    128      1      1   0.000000  -5.467510   2.016220   0.000000
    129      1      1   0.000000   6.110020   4.969130   0.000000
    130      1      1   0.000000  -2.631650  -2.743940   0.000000
    131      1      1   0.000000  -5.864600   7.048650   0.000000
    132      1      1   0.000000  -5.194650  -7.740320   0.000000
    133      1      1   0.000000   1.852810   7.034380   0.000000
    134      1      1   0.000000   1.953500  -4.596380   0.000000
    135      1      1   0.000000   7.835170  -3.840330   0.000000
    136      1      1   0.000000   3.382220  -7.447860   0.000000
    137      1      1   0.000000  -6.479740  -5.015680   0.000000
    138      1      1   0.000000  -3.183880   1.726340   0.000000
    139      1      1   0.000000  -4.119830   5.346870   0.000000
    140      1      1   0.000000   0.255076  -7.745340   0.000000
    141      1      1   0.000000   4.911840   6.226200   0.000000
    142      1      1   0.000000   5.275880  -1.751640   0.000000
    143      1      1   0.000000   4.485230  -2.382580   0.000000
    144      1      1   0.000000  -4.222480  -1.724030   0.000000
    145      1      1   0.000000  -6.970500   2.976650   0.000000
    146      1      1   0.000000  -3.655100   0.842258   0.000000
    147      1      1   0.000000   0.637747   2.479580   0.000000
    148      1      1   0.000000  -5.710850  -4.324000   0.000000
    149      1      1   0.000000  -6.344960  -2.504270   0.000000
    150      1      1   0.000000  -6.018450   0.046203   0.000000
    151      1      1   0.000000   6.585960   6.555630   0.000000
    152      1      1   0.000000   2.427790  -2.703980   0.000000
    153      1      1   0.000000   4.970140   7.245220   0.000000
    154      1      1   0.000000  -4.121090  -0.006903   0.000000
    155      1      1   0.000000  -1.948970  -7.247820   0.000000
    156      1      1   0.000000  -3.950230  -4.501090   0.000000
    157      1      1   0.000000  -2.556330   4.627110   0.000000
    158      1      1   0.000000  -7.459060  -1.399300   0.000000
    159      1      1   0.000000  -4.796950  -4.633330   0.000000
    160      1      1   0.000000   3.995640   2.979790   0.000000
    161      1      1   0.000000  -1.047830  -4.384260   0.000000
    162      1      1   0.000000   1.469340   6.046160   0.000000
    163      1      1   0.000000  -2.857030  -5.797730   0.000000
    164      1      1   0.000000  -1.081890   2.565990   0.000000
    165      1      1   0.000000   2.606070  -0.740701   0.000000
    166      1      1   0.000000   1.212820   7.729340   0.000000
    167      1      1   0.000000   5.867750   5.850800   0.000000
    168      1      1   0.000000  -1.750100   4.300510   0.000000
    169      1      1   0.000000  -6.837440   7.103690   0.000000
    170      1      1   0.000000  -1.201380   7.096390   0.000000
    171      1      1   0.000000   3.893420  -4.593660   0.000000
    172      1      1   0.000000   5.816440  -4.883700   0.000000
    173      1      1   0.000000   7.022930  -7.465210   0.000000
    174      1      1   0.000000   2.279740   4.018130   0.000000
    175      1      1   0.000000   5.679380   6.665970   0.000000
    176      1      1   0.000000  -4.901690   7.068470   0.000000
    177      1      1   0.000000   2.557380   1.271270   0.000000
    178      1      1   0.000000  -1.265410   0.552854   0.000000
    179      1      1   0.000000  -5.740640  -6.790040   0.000000
    180      1      1   0.000000  -5.663030  -3.239960   0.000000
    181      1      1   0.000000  -7.097970  -4.347360   0.000000
    182      1      1   0.000000   0.037006  -3.095470   0.000000
    183      1      1   0.000000  -1.594730  -2.979080   0.000000
    184      1      1   0.000000   5.583930  -5.701790   0.000000
    185      1      1   0.000000   0.644792  -3.677260   0.000000
    186      1      1   0.000000  -0.143924  -4.136450   0.000000
    187      1      1   0.000000  -6.712410   0.786846   0.000000
    188      1      1   0.000000   7.163940   7.422860   0.000000
    189      1      1   0.000000   4.329060  -1.414270   0.000000
    190      1      1   0.000000   4.118460   6.904970   0.000000
    191      1      1   0.000000  -5.980420   2.775640   0.000000
    192      1      1   0.000000   4.097390   7.801080   0.000000
    193      1      1   0.000000   3.778320   4.663000   0.000000
    194      1      1   0.000000  -5.975200   1.094310   0.000000
    195      1      1   0.000000  -2.383980  -6.441950   0.000000
    196      1      1   0.000000  -1.973280   7.533990   0.000000
    197      1      1   0.000000   1.751770  -0.372304   0.000000
    198      1      1   0.000000  -0.834271  -1.145160   0.000000
    199      1      1   0.000000   4.056240  -6.805580   0.000000
    200      1      1   0.000000  -1.387370   3.485020   0.000000
    201      1      1   0.000000   7.573790  -0.843283   0.000000
    202      1      1   0.000000   2.403650   3.043680   0.000000
    203      1      1   0.000000   6.115590  -2.095330   0.000000
    204      1      1   0.000000  -0.411092   7.195470   0.000000

Bond Coeffs # ['bondID', 'bondCoeff', 'd']

      1   0.750833   1.407652
      2   0.709447   1.468018
      3   0.854637   1.251612
      4   0.788287   1.237078
      5   0.765699   1.251486
      6   0.871685   1.087342
      7   0.822297   1.231415
      8   0.750833   1.407652
      9   0.824996   1.286321
     10   0.755248   1.303908
     11   0.779207   1.326346
     12   0.782519   1.303546
     13   0.857886   1.128011
     14   0.947888   1.061060
     15   0.813089   1.317829
     16   0.704098   1.315989
     17   0.684180   1.360599
     18   0.730321   1.268098
     19   0.878293   1.208123
     20   0.777495   1.265353
     21   0.824393   1.196787
     22   0.662474   1.439095
     23   0.724638   1.394385
     24   0.832452   1.358346
     25   0.787024   1.302069
     26   0.784697   1.358330
     27   0.784169   1.348210
     28   0.962527   1.112920
     29   0.735578   1.419149
     30   0.690854   1.264230
     31   0.799781   1.276784
     32   0.822621   1.251752
     33   0.940388   1.109824
     34   0.820686   1.153197
     35   0.869525   1.114133
     36   0.675408   1.392787
     37   0.794371   1.353407
     38   0.719950   1.379795
     39   0.752002   1.280227
     40   0.815160   1.288167
     41   0.876520   1.148203
     42   0.836183   1.221071
     43   0.727076   1.445759
     44   0.715906   1.329461
     45   0.785626   1.300034
     46   0.827834   1.264501
     47   0.925735   1.045578
     48   0.893351   1.142531
     49   0.727076   1.445759
     50   0.656600   1.533932
     51   0.656376   1.479424
     52   0.756656   1.360217
     53   0.895893   1.240191
     54   0.890294   1.208165
     55   0.797372   1.204387
     56   0.736315   1.400309
     57   0.756899   1.350346
     58   0.693377   1.338282
     59   0.757111   1.347617
     60   0.821077   1.255668
     61   0.785118   1.300810
     62   0.823531   1.191448
     63   0.663214   1.466556
     64   0.719157   1.409995
     65   0.801189   1.264571
     66   0.815256   1.212179
     67   0.892138   1.159344
     68   0.821951   1.244017
     69   0.751960   1.193868
     70   0.650048   1.528815
     71   0.736650   1.322821
     72   0.732457   1.299888
     73   0.829529   1.156671
     74   0.734602   1.245312
     75   0.798336   1.263928
     76   0.805272   1.196663
     77   0.839783   1.343277
     78   0.756323   1.315667
     79   0.780994   1.303316
     80   0.762002   1.257897
     81   0.791832   1.308639
     82   0.760771   1.143007
     83   0.776207   1.174876
     84   0.650048   1.528815
     85   0.769002   1.350983
     86   0.838407   1.215988
     87   0.766947   1.311648
     88   0.786649   1.294855
     89   0.775404   1.192205
     90   0.911660   1.164257
     91   0.808219   1.331547
     92   0.693865   1.426367
     93   0.762472   1.213918
     94   0.905029   1.152748
     95   0.985914   1.139769
     96   0.832860   1.140303
     97   0.694025   1.370384
     98   0.689678   1.474601
     99   0.717824   1.492220
    100   0.877057   1.237044
    101   0.722251   1.317965
    102   0.725421   1.215045
    103   0.834767   1.188538
    104   0.662474   1.439095
    105   0.652985   1.497923
    106   0.741096   1.415130
    107   0.732365   1.419296
    108   0.712359   1.283760
    109   0.826421   1.218933
    110   0.707612   1.407144
    111   0.780882   1.208625
    112   0.649904   1.470007
    113   0.745841   1.360462
    114   0.792874   1.201013
    115   0.870380   1.153304
    116   0.709447   1.468018
    117   0.778434   1.419230
    118   0.744977   1.362022
    119   0.702258   1.408678
    120   0.882391   1.162858
    121   0.855317   1.141401
    122   0.762663   1.226617
    123   0.764150   1.510858
    124   0.785989   1.313978
    125   0.731645   1.431209
    126   0.832622   1.208059
    127   0.771093   1.264573
    128   0.906096   1.040210
    129   0.667117   1.586466
    130   0.671634   1.392427
    131   0.717027   1.337048
    132   0.761889   1.355682
    133   0.667439   1.364253
    134   0.859020   1.137798
    135   0.852656   1.097413
    136   0.598444   1.542701
    137   0.767797   1.356611
    138   0.622527   1.534205
    139   0.644777   1.449315
    140   0.691664   1.407782
    141   0.684014   1.458976
    142   0.812940   1.285122
    143   0.598444   1.542701
    144   0.755004   1.334283
    145   0.743883   1.355779
    146   0.756173   1.367430
    147   0.723022   1.363697
    148   0.743518   1.294361
    149   0.722491   1.481749
    150   0.704094   1.317562
    151   0.701045   1.424990
    152   0.804016   1.230964
    153   0.802548   1.233238
    154   0.969534   1.148094
    155   0.841625   1.120107
    156   0.671158   1.486343
    157   0.735494   1.279611
    158   0.717162   1.281844
    159   0.711600   1.335487
    160   0.891118   1.151445
    161   0.948737   1.087823
    162   1.000730   1.096161
    163   0.715906   1.329461
    164   0.656600   1.533932
    165   0.767009   1.378762
    166   0.675868   1.309021
    167   0.916787   1.155117
    168   0.855280   1.200878
    169   0.802442   1.288733
    170   0.676208   1.457194
    171   0.732776   1.337067
    172   0.732432   1.312058
    173   0.729253   1.300002
    174   0.849251   1.264678
    175   1.043896   1.102215
    176   0.938392   1.081182
    177   0.667117   1.586466
    178   0.649499   1.569271
    179   0.706026   1.425076
    180   0.743628   1.306984
    181   0.789851   1.389369
    182   0.793652   1.235124
    183   0.852589   1.217530
    184   0.710421   1.431050
    185   0.727127   1.305747
    186   0.769257   1.308274
    187   0.790195   1.282829
    188   0.921757   1.095182
    189   0.819136   1.216620
    190   0.841880   1.208396
    191   0.675408   1.392787
    192   0.771435   1.298012
    193   0.790638   1.149887
    194   0.688794   1.385188
    195   0.801340   1.315190
    196   0.849616   1.173025
    197   0.884689   1.088557
    198   0.794371   1.353407
    199   0.678583   1.371778
    200   0.751075   1.342393
    201   0.936286   1.247728
    202   0.828670   1.177561
    203   0.984567   1.072165
    204   0.707612   1.407144
    205   0.735269   1.492490
    206   0.963102   1.232583
    207   0.798544   1.196324
    208   0.832619   1.159833
    209   0.899782   1.191235
    210   0.663214   1.466556
    211   0.767797   1.356611
    212   0.745594   1.439861
    213   0.807965   1.176726
    214   0.728726   1.295224
    215   0.863851   1.166294
    216   0.622527   1.534205
    217   0.745594   1.439861
    218   0.796767   1.355669
    219   0.779940   1.337237
    220   0.754537   1.156298
    221   0.820106   1.265223
    222   0.755004   1.334283
    223   0.749409   1.322565
    224   0.764855   1.240876
    225   0.775663   1.353186
    226   0.867924   1.197655
    227   0.915274   1.161764
    228   0.783301   1.229328
    229   0.798950   1.387175
    230   0.816019   1.236235
    231   0.708175   1.391609
    232   0.807832   1.247155
    233   0.735627   1.276905
    234   0.855302   1.165808
    235   0.625055   1.515150
    236   0.740484   1.307682
    237   0.835675   1.258521
    238   0.742356   1.250626
    239   0.888108   1.175478
    240   0.767630   1.239746
    241   0.719157   1.409995
    242   0.756773   1.287914
    243   0.658360   1.497662
    244   0.730410   1.323856
    245   0.775102   1.252288
    246   0.824019   1.138585
    247   0.847162   1.176294
    248   0.757201   1.276151
    249   0.750127   1.340919
    250   0.722044   1.318325
    251   0.807718   1.198231
    252   0.800537   1.256522
    253   0.649499   1.569271
    254   0.653337   1.434865
    255   0.750763   1.337500
    256   0.663891   1.418379
    257   0.664403   1.417611
    258   0.744237   1.275215
    259   0.872739   1.181201
    260   0.736315   1.400309
    261   0.706026   1.425076
    262   0.653337   1.434865
    263   0.753952   1.328348
    264   0.721109   1.303426
    265   0.855561   1.237390
    266   0.678583   1.371778
    267   0.771360   1.343645
    268   0.741704   1.232896
    269   0.777137   1.319202
    270   0.817437   1.347113
    271   0.862595   1.223015
    272   0.909819   1.174659
    273   0.656376   1.479424
    274   0.764150   1.510858
    275   0.726158   1.320831
    276   0.830440   1.220323
    277   0.858826   1.187240
    278   0.778701   1.320634
    279   0.987043   1.123735
    280   0.694025   1.370384
    281   0.650366   1.484824
    282   0.713355   1.405052
    283   0.802401   1.253801
    284   0.807499   1.335069
    285   0.827900   1.132667
    286   0.689678   1.474601
    287   0.671158   1.486343
    288   0.650366   1.484824
    289   0.880433   1.068485
    290   0.764157   1.202361
    291   0.848060   1.155384
    292   0.644777   1.449315
    293   0.743883   1.355779
    294   0.656252   1.370457
    295   0.791722   1.247010
    296   0.752141   1.339408
    297   0.777436   1.221267
    298   0.713355   1.405052
    299   0.756717   1.269402
    300   0.763523   1.235243
    301   0.856350   1.264254
    302   0.840284   1.223687
    303   0.835515   1.121554
    304   0.898694   1.077162
    305   0.722491   1.481749
    306   0.676208   1.457194
    307   0.735269   1.492490
    308   0.840814   1.173899
    309   0.857505   1.169832
    310   0.849874   1.146205
    311   0.808109   1.197211
    312   0.652985   1.497923
    313   0.710421   1.431050
    314   0.701144   1.408665
    315   0.863994   1.164382
    316   0.749388   1.307190
    317   0.903993   1.191415
    318   0.902736   1.208362
    319   0.754207   1.340626
    320   0.690167   1.367455
    321   0.828041   1.302458
    322   0.763269   1.320611
    323   0.881427   1.154945
    324   0.717824   1.492220
    325   0.764040   1.293225
    326   0.757676   1.350183
    327   0.878866   1.296584
    328   0.765578   1.290447
    329   0.780428   1.135332
    330   0.960473   1.075836
    331   0.625055   1.515149
    332   0.824986   1.253062
    333   0.776266   1.376269
    334   0.731291   1.271763
    335   0.807599   1.293892
    336   0.776856   1.307084
    337   0.839123   1.203263
    338   0.756899   1.350346
    339   0.753952   1.328348
    340   0.899008   1.273726
    341   0.815042   1.237942
    342   0.723434   1.288421
    343   0.845548   1.178266
    344   0.756173   1.367430
    345   0.751075   1.342393
    346   0.771360   1.343645
    347   0.656252   1.370457
    348   0.691073   1.327992
    349   0.819870   1.240255
    350   0.740484   1.307682
    351   0.807217   1.261179
    352   0.771733   1.166342
    353   0.805634   1.123103
    354   0.927001   1.019956
    355   1.070236   0.892934
    356   0.719950   1.379795
    357   0.723022   1.363697
    358   0.936286   1.247728
    359   0.749409   1.322565
    360   0.691073   1.327992
    361   0.782957   1.266158
    362   0.824996   1.286321
    363   0.735494   1.279611
    364   0.846955   1.162773
    365   0.803790   1.190418
    366   0.888042   1.176382
    367   0.985282   1.020502
    368   0.757201   1.276151
    369   0.652431   1.321102
    370   0.763757   1.302232
    371   0.767066   1.274428
    372   0.902842   1.059292
    373   0.864610   1.138767
    374   0.736650   1.322821
    375   0.754207   1.340626
    376   0.734465   1.384025
    377   0.854820   1.086959
    378   0.841444   1.137091
    379   0.936719   1.029309
    380   0.780882   1.208625
    381   0.671634   1.392427
    382   0.748622   1.259389
    383   0.823801   1.178493
    384   0.939206   1.153285
    385   0.948520   1.047240
    386   0.830781   1.192053
    387   0.811193   1.241226
    388   0.862848   1.141077
    389   0.929023   1.081357
    390   0.892936   1.158094
    391   0.879108   1.060162
    392   0.785989   1.313978
    393   0.743628   1.306984
    394   0.767232   1.272177
    395   1.057116   0.986944
    396   0.943494   1.001962
    397   0.932109   1.128384
    398   0.735578   1.419149
    399   0.649904   1.470007
    400   0.748622   1.259389
    401   0.790363   1.259335
    402   0.728795   1.341279
    403   0.970179   1.102216
    404   0.801642   1.095511
    405   0.724638   1.394385
    406   0.839783   1.343277
    407   0.808219   1.331547
    408   0.741096   1.415131
    409   0.753388   1.275644
    410   0.984604   1.035113
    411   0.756656   1.360217
    412   0.783301   1.229328
    413   0.812380   1.243358
    414   0.898490   1.124153
    415   0.861263   1.043838
    416   1.004998   1.004661
    417   0.690854   1.264230
    418   0.745841   1.360462
    419   0.704094   1.317562
    420   0.790363   1.259335
    421   0.801779   1.164292
    422   0.865213   1.185537
    423   0.895893   1.240191
    424   0.767009   1.378762
    425   0.726158   1.320831
    426   1.105357   1.023780
    427   0.807797   1.209695
    428   0.932075   1.082148
    429   0.832452   1.358346
    430   0.824986   1.253062
    431   0.748025   1.212006
    432   0.841931   1.171808
    433   0.959792   1.167739
    434   1.043115   1.104688
    435   0.693865   1.426367
    436   0.770928   1.362396
    437   0.859487   1.290586
    438   0.775567   1.291347
    439   0.783323   1.282889
    440   0.882840   1.103285
    441   0.895940   1.075252
    442   0.732457   1.299888
    443   0.750127   1.340919
    444   0.652431   1.321102
    445   0.849151   1.079208
    446   0.748705   1.185144
    447   0.928902   1.053886
    448   0.796767   1.355669
    449   0.770928   1.362396
    450   0.839451   1.226440
    451   0.860950   1.062505
    452   0.897718   1.060882
    453   0.843537   1.150994
    454   0.756323   1.315667
    455   0.742453   1.296561
    456   1.038334   1.045678
    457   0.969782   1.125982
    458   0.960140   1.039432
    459   1.005639   1.046501
    460   0.780994   1.303317
    461   0.742453   1.296561
    462   0.883363   1.226370
    463   0.871696   1.155911
    464   0.948777   1.127585
    465   0.842644   1.059353
    466   0.918861   1.138945
    467   0.762472   1.213918
    468   0.732365   1.419296
    469   0.922213   1.165251
    470   0.821504   1.156950
    471   0.883480   1.124334
    472   1.002174   0.992569
    473   0.750763   1.337500
    474   0.764040   1.293225
    475   0.852814   1.251399
    476   0.862869   1.142708
    477   0.792667   1.160162
    478   0.676425   1.258714
    479   0.836380   1.277214
    480   0.786855   1.222224
    481   0.795119   1.225078
    482   0.929773   1.048731
    483   0.968070   1.024292
    484   0.831930   1.155584
    485   0.914691   1.052141
    486   0.785626   1.300034
    487   0.690167   1.367455
    488   0.864434   1.262410
    489   0.783204   1.138915
    490   1.039967   0.972575
    491   0.830552   1.164655
    492   0.771435   1.298012
    493   0.828041   1.302458
    494   0.930615   1.021597
    495   0.904768   1.191165
    496   0.898943   1.058602
    497   0.778434   1.419230
    498   0.734465   1.384025
    499   0.780151   1.147044
    500   0.864730   1.122766
    501   0.992636   0.993369
    502   0.921588   1.104238
    503   0.752002   1.280227
    504   0.764855   1.240876
    505   0.782957   1.266158
    506   0.813876   1.136216
    507   1.074577   0.966711
    508   0.779940   1.337237
    509   0.899008   1.273726
    510   0.788458   1.216523
    511   0.749167   1.173540
    512   0.894245   1.148819
    513   0.810122   1.225785
    514   0.813089   1.317829
    515   0.727127   1.305747
    516   0.840608   1.269258
    517   0.820495   1.102239
    518   0.998208   1.059346
    519   0.992106   1.037314
    520   0.744977   1.362022
    521   0.836380   1.277214
    522   0.885934   1.251313
    523   0.799036   1.223864
    524   0.852900   1.154646
    525   0.816290   1.143253
    526   0.691664   1.407782
    527   0.791722   1.247010
    528   0.830781   1.192053
    529   0.839277   1.212719
    530   0.992225   1.089632
    531   0.824108   1.191623
    532   0.704098   1.315989
    533   0.693377   1.338282
    534   0.717027   1.337048
    535   0.778003   1.212386
    536   0.890929   1.125856
    537   0.973722   1.040040
    538   0.815042   1.237942
    539   0.859487   1.290586
    540   0.839451   1.226440
    541   0.788458   1.216523
    542   0.920159   1.224210
    543   0.701045   1.424990
    544   0.756773   1.287914
    545   0.764136   1.291483
    546   0.750743   1.240758
    547   0.850853   1.155439
    548   0.983510   0.980830
    549   0.658360   1.497662
    550   0.764136   1.291483
    551   0.744906   1.308563
    552   0.774438   1.218290
    553   0.888958   1.109720
    554   0.969093   1.092312
    555   0.731645   1.431209
    556   0.789851   1.389369
    557   0.663891   1.418379
    558   0.767232   1.272177
    559   0.852814   1.251399
    560   0.847824   1.127567
    561   0.835675   1.258521
    562   0.741704   1.232896
    563   0.776266   1.376269
    564   0.967026   1.104891
    565   1.019430   1.049056
    566   0.856105   1.131005
    567   0.732776   1.337067
    568   0.798950   1.387175
    569   0.898113   1.108656
    570   0.906967   1.158460
    571   0.919535   1.116356
    572   0.869809   1.025102
    573   0.722044   1.318325
    574   0.885934   1.251313
    575   0.834693   1.228016
    576   0.842284   1.245578
    577   0.932640   1.178793
    578   1.059271   1.024669
    579   0.854637   1.251612
    580   0.702258   1.408678
    581   0.786855   1.222224
    582   0.799036   1.223864
    583   1.070608   1.045788
    584   0.976019   1.082906
    585   0.777137   1.319202
    586   0.752141   1.339408
    587   0.756717   1.269402
    588   0.819870   1.240255
    589   0.836271   1.234831
    590   1.063210   0.995341
    591   0.684180   1.360599
    592   0.769257   1.308274
    593   0.701144   1.408665
    594   0.840608   1.269258
    595   0.976861   1.127205
    596   0.947857   1.088254
    597   0.787024   1.302069
    598   0.762002   1.257897
    599   0.753388   1.275644
    600   0.748025   1.212006
    601   1.064158   1.066960
    602   0.976980   1.053505
    603   0.684014   1.458976
    604   0.743518   1.294361
    605   0.807965   1.176726
    606   0.775663   1.353186
    607   0.883033   1.226465
    608   0.935217   1.129378
    609   0.763757   1.302232
    610   0.744906   1.308563
    611   0.834693   1.228016
    612   0.892738   1.184938
    613   0.776812   1.184666
    614   0.915741   1.080069
    615   0.767066   1.274428
    616   0.849151   1.079208
    617   0.813245   1.240652
    618   0.886443   1.145493
    619   0.908020   1.071058
    620   0.804526   1.147256
    621   0.761889   1.355682
    622   0.823801   1.178493
    623   0.728795   1.341279
    624   0.930847   1.110967
    625   0.983519   0.981589
    626   0.950891   1.054573
    627   0.664403   1.417611
    628   0.721109   1.303426
    629   0.723434   1.288421
    630   0.749167   1.173540
    631   0.873326   1.170870
    632   0.958868   1.012838
    633   0.777385   1.209165
    634   0.805050   1.263818
    635   0.980612   1.015418
    636   0.892558   1.033774
    637   0.890812   1.119203
    638   0.940224   1.058873
    639   0.769002   1.350983
    640   0.813245   1.240652
    641   0.826709   1.277505
    642   1.017769   1.030754
    643   1.158729   0.926061
    644   0.854616   1.095366
    645   0.730321   1.268098
    646   0.667439   1.364253
    647   0.778003   1.212386
    648   0.930847   1.110967
    649   0.952913   1.093779
    650   0.829529   1.156671
    651   0.838407   1.215988
    652   0.790638   1.149887
    653   0.854449   1.088174
    654   0.954369   1.073565
    655   0.878293   1.208123
    656   0.820495   1.102239
    657   0.952913   1.093780
    658   1.157287   0.901720
    659   1.084928   0.953648
    660   0.717162   1.281844
    661   0.675868   1.309021
    662   0.846955   1.162773
    663   0.858221   1.143719
    664   1.006796   0.987746
    665   0.801189   1.264571
    666   0.728726   1.295224
    667   0.883033   1.226465
    668   0.777385   1.209165
    669   1.020613   1.013003
    670   0.929955   1.022154
    671   0.732432   1.312058
    672   0.867924   1.197655
    673   0.843168   1.067280
    674   1.062048   1.020121
    675   0.815160   1.288167
    676   0.813876   1.136216
    677   0.879858   1.081013
    678   1.057600   0.940466
    679   0.972668   1.074176
    680   0.969381   0.970605
    681   0.788287   1.237078
    682   0.755248   1.303908
    683   0.790195   1.282829
    684   0.803790   1.190418
    685   1.067497   0.988531
    686   0.938956   0.982990
    687   0.766947   1.311648
    688   0.731291   1.271763
    689   0.841931   1.171808
    690   0.826709   1.277505
    691   0.884610   1.119251
    692   0.921993   0.997789
    693   0.804016   1.230964
    694   0.730410   1.323856
    695   0.750743   1.240758
    696   0.805050   1.263818
    697   1.045878   1.005846
    698   1.088602   0.973214
    699   0.882391   1.162858
    700   0.807718   1.198231
    701   0.780151   1.147044
    702   0.852900   1.154646
    703   0.842284   1.245578
    704   0.877057   1.237044
    705   0.916787   1.155117
    706   1.105357   1.023780
    707   1.061769   0.938649
    708   1.198926   0.900841
    709   0.816019   1.236235
    710   0.763269   1.320611
    711   0.930615   1.021597
    712   1.133213   0.949636
    713   0.999952   0.972874
    714   0.779207   1.326346
    715   0.864434   1.262410
    716   1.070426   1.007814
    717   1.045452   0.947035
    718   1.171929   0.842085
    719   1.042210   1.032943
    720   0.792874   1.201013
    721   0.802548   1.233238
    722   0.963102   1.232583
    723   0.840814   1.173899
    724   0.801779   1.164292
    725   0.832622   1.208059
    726   0.830440   1.220323
    727   0.891983   1.052349
    728   0.833095   1.158773
    729   0.941872   1.075997
    730   1.108402   0.955680
    731   0.898113   1.108656
    732   0.891983   1.052349
    733   0.980721   1.020278
    734   0.864878   1.100727
    735   0.939428   0.995608
    736   0.777436   1.221266
    737   0.763523   1.235243
    738   0.839277   1.212719
    739   0.836271   1.234831
    740   1.039768   0.964481
    741   0.757111   1.347617
    742   0.845548   1.178266
    743   0.775567   1.291347
    744   0.920159   1.224210
    745   0.887232   1.128937
    746   1.146335   0.940189
    747   0.786649   1.294855
    748   0.807599   1.293892
    749   0.884610   1.119251
    750   0.981580   1.066422
    751   0.856964   1.087477
    752   1.070603   0.938748
    753   0.812940   1.285122
    754   0.754537   1.156298
    755   0.894245   1.148819
    756   0.992225   1.089632
    757   1.089269   0.989643
    758   0.708175   1.391609
    759   0.812380   1.243358
    760   0.783204   1.138915
    761   1.133213   0.949636
    762   0.913284   0.994512
    763   0.729253   1.300002
    764   0.807832   1.247155
    765   0.906967   1.158460
    766   0.879858   1.081013
    767   0.944833   0.999657
    768   0.735627   1.276905
    769   0.898490   1.124153
    770   0.919535   1.116356
    771   0.833095   1.158773
    772   0.980721   1.020278
    773   1.032717   1.040787
    774   0.791832   1.308639
    775   1.038334   1.045678
    776   0.886443   1.145493
    777   1.187683   0.880372
    778   0.934207   1.010559
    779   0.744237   1.275215
    780   0.757676   1.350183
    781   0.811193   1.241226
    782   0.862869   1.142708
    783   1.024258   0.916403
    784   0.961096   1.052458
    785   0.815256   1.212179
    786   0.863851   1.166294
    787   0.820106   1.265223
    788   0.860950   1.062505
    789   1.169084   0.914350
    790   0.782519   1.303546
    791   0.827834   1.264501
    792   0.855280   1.200878
    793   0.888042   1.176382
    794   0.858221   1.143719
    795   0.944462   1.063247
    796   0.821077   1.255668
    797   0.922213   1.165251
    798   0.887232   1.128937
    799   1.004681   1.125266
    800   1.161290   0.974396
    801   1.178944   0.963114
    802   0.777495   1.265353
    803   0.821504   1.156950
    804   0.976861   1.127205
    805   1.004681   1.125266
    806   1.057343   0.931542
    807   0.894276   1.095964
    808   0.799781   1.276784
    809   0.850853   1.155439
    810   0.774438   1.218290
    811   0.892738   1.184938
    812   0.909584   1.060013
    813   1.028749   0.944752
    814   0.734602   1.245312
    815   0.800537   1.256522
    816   0.854820   1.086959
    817   0.748705   1.185144
    818   0.864730   1.122766
    819   0.784697   1.358330
    820   0.742356   1.250626
    821   0.776856   1.307084
    822   0.807217   1.261179
    823   0.959792   1.167739
    824   1.098284   0.912461
    825   0.902842   1.059292
    826   0.888958   1.109720
    827   0.776812   1.184666
    828   1.259162   0.841853
    829   1.081083   0.931035
    830   0.784169   1.348210
    831   0.712359   1.283760
    832   0.863994   1.164382
    833   0.964180   1.034221
    834   1.033387   0.910417
    835   0.771093   1.264573
    836   0.858826   1.187240
    837   0.792667   1.160162
    838   0.847824   1.127567
    839   1.027777   1.001823
    840   0.785118   1.300810
    841   0.859020   1.137798
    842   0.793652   1.235124
    843   0.855561   1.237390
    844   0.890929   1.125856
    845   0.822621   1.251752
    846   0.795119   1.225078
    847   0.816290   1.143253
    848   0.932640   1.178793
    849   1.139961   0.982327
    850   1.014956   1.004823
    851   0.892138   1.159344
    852   0.775102   1.252288
    853   1.005229   1.020687
    854   0.968388   1.026981
    855   1.152415   0.884599
    856   0.965869   1.044117
    857   0.828670   1.177561
    858   0.817437   1.347113
    859   0.981580   1.066422
    860   0.942704   1.011540
    861   0.990025   1.005130
    862   1.123370   0.907324
    863   0.775404   1.192205
    864   0.688794   1.385188
    865   0.854449   1.088174
    866   0.856964   1.087477
    867   0.942704   1.011540
    868   1.066887   0.980823
    869   0.722251   1.317965
    870   0.802442   1.288733
    871   0.880433   1.068485
    872   1.006796   0.987746
    873   1.061769   0.938649
    874   0.862848   1.141077
    875   0.810122   1.225785
    876   0.824108   1.191623
    877   0.873326   1.170870
    878   1.089269   0.989643
    879   0.857581   1.010279
    880   0.778701   1.320634
    881   0.878866   1.296584
    882   0.807797   1.209695
    883   0.676425   1.258714
    884   1.027777   1.001823
    885   1.024666   0.968618
    886   0.849251   1.264678
    887   0.798544   1.196324
    888   0.857505   1.169832
    889   0.869809   1.025102
    890   0.864878   1.100727
    891   0.711600   1.335487
    892   0.749388   1.307190
    893   0.771733   1.166342
    894   0.964180   1.034221
    895   1.057817   0.964831
    896   1.010889   1.085094
    897   0.888108   1.175478
    898   0.802401   1.253801
    899   0.764157   1.202361
    900   0.805634   1.123103
    901   1.114639   1.003129
    902   0.725421   1.215045
    903   0.807499   1.335069
    904   0.856350   1.264254
    905   0.765578   1.290447
    906   0.970864   1.014955
    907   0.933771   1.048999
    908   0.783323   1.282889
    909   0.897718   1.060882
    910   0.883363   1.226370
    911   1.002633   1.006286
    912   1.127639   0.913270
    913   0.851990   1.042185
    914   0.798336   1.263928
    915   0.801340   1.315190
    916   0.841444   1.137091
    917   0.904768   1.191165
    918   0.954369   1.073565
    919   0.969782   1.125982
    920   0.871696   1.155911
    921   1.005229   1.020687
    922   1.218977   0.915725
    923   1.118861   0.917131
    924   1.106774   1.034733
    925   0.834767   1.188538
    926   0.780428   1.135332
    927   0.932075   1.082148
    928   1.198926   0.900841
    929   1.024666   0.968618
    930   0.929773   1.048731
    931   1.070608   1.045788
    932   1.157287   0.901720
    933   1.101748   0.915784
    934   1.090487   0.911581
    935   0.891118   1.151445
    936   0.921757   1.095182
    937   0.985282   1.020502
    938   1.067497   0.988531
    939   1.204839   0.856984
    940   0.852656   1.097413
    941   0.852589   1.217530
    942   0.939206   1.153285
    943   1.057116   0.986944
    944   1.220190   0.869870
    945   0.767630   1.239746
    946   0.827900   1.132667
    947   0.840284   1.223687
    948   0.967026   1.104891
    949   1.155767   0.862159
    950   0.948737   1.087823
    951   0.819136   1.216620
    952   0.903993   1.191415
    953   1.057817   0.964831
    954   1.204839   0.856984
    955   0.915274   1.161764
    956   0.935217   1.129378
    957   0.980612   1.015418
    958   1.020613   1.013003
    959   0.843168   1.067280
    960   0.765699   1.251486
    961   0.857886   1.128011
    962   0.855317   1.141401
    963   1.070426   1.007814
    964   1.026510   0.937260
    965   0.940388   1.109824
    966   0.969534   1.148094
    967   0.865213   1.185537
    968   0.983510   0.980830
    969   0.909584   1.060013
    970   0.871685   1.087342
    971   0.841880   1.208396
    972   0.998208   1.059346
    973   0.938956   0.982990
    974   1.245123   0.799247
    975   0.906096   1.040210
    976   0.832619   1.159833
    977   0.941872   1.075997
    978   0.939428   0.995608
    979   0.986591   0.968470
    980   0.876520   1.148203
    981   0.849616   1.173025
    982   0.898943   1.058602
    983   1.057600   0.940466
    984   1.153061   0.930347
    985   0.820686   1.153197
    986   1.059271   1.024669
    987   0.915741   1.080069
    988   1.028749   0.944752
    989   1.139961   0.982327
    990   0.821951   1.244017
    991   0.843537   1.150994
    992   1.169084   0.914350
    993   0.968388   1.026981
    994   1.002633   1.006286
    995   1.165781   0.836651
    996   0.870380   1.153304
    997   0.948520   1.047240
    998   0.943494   1.001962
    999   1.220190   0.869870
   1000   1.067423   0.892523
   1001   0.905029   1.152748
   1002   0.882840   1.103285
   1003   0.883480   1.124334
   1004   1.146335   0.940189
   1005   1.161290   0.974396
   1006   0.970179   1.102216
   1007   0.968070   1.024292
   1008   0.983519   0.981589
   1009   1.118778   0.887312
   1010   1.276806   0.796475
   1011   0.805272   1.196663
   1012   0.911660   1.164257
   1013   0.928902   1.053886
   1014   0.908020   1.071058
   1015   1.017769   1.030754
   1016   1.043115   1.104688
   1017   1.064158   1.066960
   1018   1.158729   0.926061
   1019   0.921993   0.997789
   1020   1.145465   0.850489
   1021   0.760771   1.143007
   1022   0.985914   1.139769
   1023   0.984604   1.035113
   1024   0.948777   1.127585
   1025   1.170006   0.817253
   1026   0.841625   1.120107
   1027   0.849874   1.146205
   1028   0.892558   1.033774
   1029   1.045878   1.005846
   1030   1.037166   0.982296
   1031   0.842644   1.059353
   1032   1.152415   0.884599
   1033   1.127639   0.913270
   1034   1.218977   0.915725
   1035   1.165781   0.836651
   1036   0.824393   1.196787
   1037   0.823531   1.191448
   1038   0.973722   1.040040
   1039   1.178944   0.963114
   1040   1.057343   0.931542
   1041   1.043896   1.102215
   1042   1.074577   0.966711
   1043   0.972668   1.074176
   1044   0.944833   0.999657
   1045   0.890294   1.208165
   1046   0.987043   1.123735
   1047   0.861263   1.043838
   1048   1.108402   0.955680
   1049   1.032717   1.040787
   1050   0.826421   1.218933
   1051   0.902736   1.208362
   1052   1.002174   0.992569
   1053   0.947857   1.088254
   1054   0.894276   1.095964
   1055   1.000730   1.096161
   1056   0.848060   1.155384
   1057   0.927001   1.019956
   1058   1.010889   1.085094
   1059   1.114639   1.003129
   1060   0.962527   1.112920
   1061   1.070236   0.892934
   1062   1.098284   0.912461
   1063   1.033387   0.910417
   1064   0.881427   1.154945
   1065   1.039967   0.972575
   1066   1.045452   0.947035
   1067   1.119223   0.841358
   1068   0.947888   1.061060
   1069   0.925735   1.045578
   1070   1.171929   0.842085
   1071   0.944462   1.063247
   1072   0.776207   1.174876
   1073   0.976980   1.053505
   1074   0.854616   1.095366
   1075   1.187683   0.880372
   1076   1.145465   0.850489
   1077   0.936719   1.029309
   1078   0.992636   0.993369
   1079   1.119223   0.841358
   1080   1.135246   0.912649
   1081   0.762663   1.226617
   1082   0.921588   1.104238
   1083   1.042210   1.032943
   1084   1.026510   0.937260
   1085   1.135246   0.912649
   1086   0.835515   1.121554
   1087   0.929023   1.081357
   1088   1.039768   0.964481
   1089   0.970864   1.014955
   1090   1.180885   0.798757
   1091   0.832860   1.140303
   1092   0.895940   1.075252
   1093   0.918861   1.138945
   1094   0.851990   1.042185
   1095   1.170006   0.817253
   1096   0.836183   1.221071
   1097   0.884689   1.088557
   1098   0.984567   1.072165
   1099   0.990025   1.005130
   1100   1.066887   0.980823
   1101   0.824019   1.138585
   1102   0.969093   1.092312
   1103   0.965869   1.044117
   1104   1.118861   0.917131
   1105   1.093358   0.896358
   1106   0.872739   1.181201
   1107   0.892936   1.158094
   1108   0.958868   1.012838
   1109   1.024258   0.916403
   1110   0.857581   1.010279
   1111   0.960140   1.039432
   1112   1.259162   0.841853
   1113   1.106774   1.034733
   1114   1.093358   0.896358
   1115   0.751960   1.193868
   1116   0.847162   1.176294
   1117   0.890812   1.119203
   1118   0.929955   1.022154
   1119   1.088602   0.973214
   1120   0.960473   1.075836
   1121   0.879108   1.060162
   1122   0.961096   1.052458
   1123   0.933771   1.048999
   1124   1.180885   0.798757
   1125   0.822297   1.231415
   1126   0.992106   1.037314
   1127   0.976019   1.082906
   1128   1.101748   0.915784
   1129   1.245123   0.799247
   1130   0.831930   1.155583
   1131   0.950891   1.054573
   1132   1.084928   0.953648
   1133   1.090487   0.911581
   1134   1.118778   0.887312
   1135   0.855302   1.165808
   1136   0.969381   0.970605
   1137   0.999952   0.972874
   1138   1.153061   0.930347
   1139   0.893351   1.142531
   1140   0.797372   1.204387
   1141   1.004998   1.004661
   1142   0.830552   1.164655
   1143   0.913284   0.994512
   1144   0.864610   1.138767
   1145   1.005639   1.046501
   1146   0.804526   1.147256
   1147   0.934207   1.010559
   1148   1.081083   0.931035
   1149   0.899782   1.191235
   1150   0.932109   1.128384
   1151   0.986591   0.968470
   1152   1.067423   0.892523
   1153   0.862595   1.223015
   1154   0.898694   1.077163
   1155   1.019430   1.049056
   1156   1.063210   0.995341
   1157   1.155767   0.862159
   1158   0.938392   1.081182
   1159   0.808109   1.197211
   1160   0.940224   1.058873
   1161   1.062048   1.020121
   1162   1.037166   0.982296
   1163   0.909819   1.174659
   1164   0.839123   1.203263
   1165   0.856105   1.131005
   1166   1.070603   0.938748
   1167   1.123370   0.907324
   1168   0.869525   1.114133
   1169   0.801642   1.095511
   1170   0.914691   1.052140
   1171   1.014956   1.004823
   1172   1.276806   0.796475

Bonds # ['ID', 'type', 'atom1', 'atom2']

         1         1         1         2
         2         2         1        18
         3         3         1        92
         4         4         1       110
         5         5         1       161
         6         6         1       163
         7         7         1       195
         8         8         2         1
         9         9         2        56
        10        10         2       110
        11        11         2       116
        12        12         2       130
        13        13         2       161
        14        14         2       183
        15        15         3        81
        16        16         3        84
        17        17         3        94
        18        18         3       103
        19        19         3       105
        20        20         3       132
        21        21         3       176
        22        22         4        16
        23        23         4        63
        24        24         4        67
        25        25         4        95
        26        26         4       135
        27        27         4       137
        28        28         4       181
        29        29         5        62
        30        30         5        65
        31        31         5       133
        32        32         5       140
        33        33         5       162
        34        34         5       166
        35        35         5       204
        36        36         6        29
        37        37         6        30
        38        38         6        55
        39        39         6        79
        40        40         6       109
        41        41         6       165
        42        42         6       189
        43        43         7         8
        44        44         7        25
        45        45         7        76
        46        46         7       130
        47        47         7       183
        48        48         7       198
        49        49         8         7
        50        50         8        25
        51        51         8        42
        52        52         8        64
        53        53         8        66
        54        54         8       178
        55        55         8       198
        56        56         9        40
        57        57         9        52
        58        58         9        84
        59        59         9       121
        60        60         9       131
        61        61         9       139
        62        62         9       176
        63        63        10        32
        64        64        10        37
        65        65        10       107
        66        66        10       129
        67        67        10       141
        68        68        10       167
        69        69        10       193
        70        70        11        13
        71        71        11        58
        72        72        11        69
        73        73        11       104
        74        74        11       134
        75        75        11       152
        76        76        11       171
        77        77        12        63
        78        78        12        71
        79        79        12        72
        80        80        12        95
        81        81        12       127
        82        82        12       173
        83        83        12       184
        84        84        13        11
        85        85        13       102
        86        86        13       104
        87        87        13       111
        88        88        13       122
        89        89        13       143
        90        90        13       171
        91        91        14        63
        92        92        14        68
        93        93        14        73
        94        94        14       169
        95        95        14       173
        96        96        14       188
        97        97        15        43
        98        98        15        44
        99        99        15        50
       100       100        15       114
       101       101        15       144
       102       102        15       150
       103       103        15       154
       104       104        16         4
       105       105        16        48
       106       106        16        63
       107       107        16        73
       108       108        16       137
       109       109        16       179
       110       110        17        31
       111       111        17        59
       112       112        17        62
       113       113        17        65
       114       114        17       117
       115       115        17       168
       116       116        18         1
       117       117        18        78
       118       118        18        82
       119       119        18        92
       120       120        18       113
       121       121        18       161
       122       122        18       186
       123       123        19        42
       124       124        19        61
       125       125        19        88
       126       126        19       118
       127       127        19       138
       128       128        19       164
       129       129        20        27
       130       130        20        59
       131       131        20        84
       132       132        20        99
       133       133        20       103
       134       134        20       139
       135       135        20       157
       136       136        21        22
       137       137        21        32
       138       138        21        33
       139       139        21        45
       140       140        21        83
       141       141        21        96
       142       142        21       123
       143       143        22        21
       144       144        22        34
       145       145        22        45
       146       146        22        53
       147       147        22        55
       148       148        22        96
       149       149        23        47
       150       150        23        65
       151       151        23        86
       152       152        23       112
       153       153        23       117
       154       154        23       162
       155       155        23       174
       156       156        24        44
       157       157        24        56
       158       158        24       106
       159       159        24       148
       160       160        24       156
       161       161        24       159
       162       162        24       180
       163       163        25         7
       164       164        25         8
       165       165        25        66
       166       166        25       106
       167       167        25       114
       168       168        25       130
       169       169        25       144
       170       170        26        47
       171       171        26        90
       172       172        26       108
       173       173        26       125
       174       174        26       147
       175       175        26       177
       176       176        26       202
       177       177        27        20
       178       178        27        39
       179       179        27        40
       180       180        27        61
       181       181        27        88
       182       182        27       139
       183       183        27       157
       184       184        28        48
       185       185        28        81
       186       186        28        94
       187       187        28       110
       188       188        28       156
       189       189        28       159
       190       190        28       163
       191       191        29         6
       192       192        29        77
       193       193        29       104
       194       194        29       143
       195       195        29       152
       196       196        29       165
       197       197        29       189
       198       198        30         6
       199       199        30        41
       200       200        30        53
       201       201        30        55
       202       202        30       142
       203       203        30       189
       204       204        31        17
       205       205        31        47
       206       206        31       117
       207       207        31       147
       208       208        31       164
       209       209        31       200
       210       210        32        10
       211       211        32        21
       212       212        32        33
       213       213        32        96
       214       214        32       107
       215       215        32       129
       216       216        33        21
       217       217        33        32
       218       218        33        70
       219       219        33        80
       220       220        33       123
       221       221        33       129
       222       222        34        22
       223       223        34        55
       224       224        34        79
       225       225        34        96
       226       226        34       108
       227       227        34       160
       228       228        35        64
       229       229        35        90
       230       230        35       115
       231       231        35       124
       232       232        35       125
       233       233        35       126
       234       234        35       197
       235       235        36        51
       236       236        36        54
       237       237        36        89
       238       238        36       135
       239       239        36       149
       240       240        36       158
       241       241        37        10
       242       242        37        86
       243       243        37        87
       244       244        37       112
       245       245        37       141
       246       246        37       190
       247       247        37       193
       248       248        38        57
       249       249        38        69
       250       250        38        91
       251       251        38       113
       252       252        38       134
       253       253        39        27
       254       254        39        40
       255       255        39        74
       256       256        39        88
       257       257        39       100
       258       258        39       128
       259       259        39       191
       260       260        40         9
       261       261        40        27
       262       262        40        39
       263       263        40        52
       264       264        40       100
       265       265        40       139
       266       266        41        30
       267       267        41        53
       268       268        41        89
       269       269        41        93
       270       270        41       142
       271       271        41       201
       272       272        41       203
       273       273        42         8
       274       274        42        19
       275       275        42        66
       276       276        42       118
       277       277        42       138
       278       278        42       146
       279       279        42       178
       280       280        43        15
       281       281        43        44
       282       282        43        46
       283       283        43       149
       284       284        43       150
       285       285        43       158
       286       286        44        15
       287       287        44        24
       288       288        44        43
       289       289        44       144
       290       290        44       149
       291       291        44       180
       292       292        45        21
       293       293        45        22
       294       294        45        53
       295       295        45        83
       296       296        45        93
       297       297        45       120
       298       298        46        43
       299       299        46        93
       300       300        46       120
       301       301        46       150
       302       302        46       158
       303       303        46       187
       304       304        46       201
       305       305        47        23
       306       306        47        26
       307       307        47        31
       308       308        47       117
       309       309        47       147
       310       310        47       174
       311       311        47       202
       312       312        48        16
       313       313        48        28
       314       314        48        94
       315       315        48       137
       316       316        48       148
       317       317        48       159
       318       318        48       179
       319       319        49        58
       320       320        49        76
       321       321        49        77
       322       322        49       115
       323       323        49       182
       324       324        50        15
       325       325        50        74
       326       326        50       128
       327       327        50       146
       328       328        50       150
       329       329        50       154
       330       330        50       194
       331       331        51        36
       332       332        51        67
       333       333        51        89
       334       334        51       111
       335       335        51       122
       336       336        51       135
       337       337        51       203
       338       338        52         9
       339       339        52        40
       340       340        52        80
       341       341        52        85
       342       342        52       100
       343       343        52       121
       344       344        53        22
       345       345        53        30
       346       346        53        41
       347       347        53        45
       348       348        53        55
       349       349        53        93
       350       350        54        36
       351       351        54       135
       352       352        54       148
       353       353        54       149
       354       354        54       180
       355       355        54       181
       356       356        55         6
       357       357        55        22
       358       358        55        30
       359       359        55        34
       360       360        55        53
       361       361        55        79
       362       362        56         2
       363       363        56        24
       364       364        56       106
       365       365        56       110
       366       366        56       130
       367       367        56       156
       368       368        57        38
       369       369        57        69
       370       370        57        97
       371       371        57        98
       372       372        57       136
       373       373        57       199
       374       374        58        11
       375       375        58        49
       376       376        58        78
       377       377        58       134
       378       378        58       152
       379       379        58       185
       380       380        59        17
       381       381        59        20
       382       382        59        62
       383       383        59        99
       384       384        59       157
       385       385        59       168
       386       386        60        83
       387       387        60       128
       388       388        60       145
       389       389        60       187
       390       390        60       191
       391       391        60       194
       392       392        61        19
       393       393        61        27
       394       394        61        88
       395       395        61       157
       396       396        61       168
       397       397        61       200
       398       398        62         5
       399       399        62        17
       400       400        62        59
       401       401        62        65
       402       402        62        99
       403       403        62       170
       404       404        62       204
       405       405        63         4
       406       406        63        12
       407       407        63        14
       408       408        63        16
       409       409        63        95
       410       410        63       173
       411       411        64         8
       412       412        64        35
       413       413        64       124
       414       414        64       126
       415       415        64       178
       416       416        64       198
       417       417        65         5
       418       418        65        17
       419       419        65        23
       420       420        65        62
       421       421        65       117
       422       422        65       162
       423       423        66         8
       424       424        66        25
       425       425        66        42
       426       426        66       114
       427       427        66       146
       428       428        66       154
       429       429        67         4
       430       430        67        51
       431       431        67        95
       432       432        67       111
       433       433        67       135
       434       434        67       172
       435       435        68        14
       436       436        68        70
       437       437        68        85
       438       438        68       121
       439       439        68       151
       440       440        68       169
       441       441        68       188
       442       442        69        11
       443       443        69        38
       444       444        69        57
       445       445        69        98
       446       446        69       134
       447       447        69       171
       448       448        70        33
       449       449        70        68
       450       450        70        85
       451       451        70       129
       452       452        70       151
       453       453        70       167
       454       454        71        12
       455       455        71        72
       456       456        71       127
       457       457        71       153
       458       458        71       192
       459       459        71       199
       460       460        72        12
       461       461        72        71
       462       462        72       151
       463       463        72       153
       464       464        72       173
       465       465        72       175
       466       466        72       188
       467       467        73        14
       468       468        73        16
       469       469        73       131
       470       470        73       132
       471       471        73       169
       472       472        73       179
       473       473        74        39
       474       474        74        50
       475       475        74        88
       476       476        74       128
       477       477        74       138
       478       478        74       146
       479       479        75        82
       480       480        75        92
       481       481        75       140
       482       482        75       155
       483       483        75       170
       484       484        75       196
       485       485        75       204
       486       486        76         7
       487       487        76        49
       488       488        76       116
       489       489        76       124
       490       490        76       182
       491       491        76       198
       492       492        77        29
       493       493        77        49
       494       494        77       115
       495       495        77       152
       496       496        77       165
       497       497        78        18
       498       498        78        58
       499       499        78       113
       500       500        78       134
       501       501        78       185
       502       502        78       186
       503       503        79         6
       504       504        79        34
       505       505        79        55
       506       506        79       109
       507       507        79       177
       508       508        80        33
       509       509        80        52
       510       510        80        85
       511       511        80       100
       512       512        80       123
       513       513        80       145
       514       514        81         3
       515       515        81        28
       516       516        81        94
       517       517        81       105
       518       518        81       163
       519       519        81       195
       520       520        82        18
       521       521        82        75
       522       522        82        91
       523       523        82        92
       524       524        82       113
       525       525        82       140
       526       526        83        21
       527       527        83        45
       528       528        83        60
       529       529        83       120
       530       530        83       123
       531       531        83       145
       532       532        84         3
       533       533        84         9
       534       534        84        20
       535       535        84       103
       536       536        84       139
       537       537        84       176
       538       538        85        52
       539       539        85        68
       540       540        85        70
       541       541        85        80
       542       542        85       121
       543       543        86        23
       544       544        86        37
       545       545        86        87
       546       546        86       112
       547       547        86       133
       548       548        86       162
       549       549        87        37
       550       550        87        86
       551       551        87        97
       552       552        87       133
       553       553        87       136
       554       554        87       190
       555       555        88        19
       556       556        88        27
       557       557        88        39
       558       558        88        61
       559       559        88        74
       560       560        88       138
       561       561        89        36
       562       562        89        41
       563       563        89        51
       564       564        89       158
       565       565        89       201
       566       566        89       203
       567       567        90        26
       568       568        90        35
       569       569        90       119
       570       570        90       125
       571       571        90       126
       572       572        90       147
       573       573        91        38
       574       574        91        82
       575       575        91        97
       576       576        91       113
       577       577        91       140
       578       578        91       166
       579       579        92         1
       580       580        92        18
       581       581        92        75
       582       582        92        82
       583       583        92       155
       584       584        92       195
       585       585        93        41
       586       586        93        45
       587       587        93        46
       588       588        93        53
       589       589        93       120
       590       590        93       201
       591       591        94         3
       592       592        94        28
       593       593        94        48
       594       594        94        81
       595       595        94       132
       596       596        94       179
       597       597        95         4
       598       598        95        12
       599       599        95        63
       600       600        95        67
       601       601        95       172
       602       602        95       184
       603       603        96        21
       604       604        96        22
       605       605        96        32
       606       606        96        34
       607       607        96       107
       608       608        96       160
       609       609        97        57
       610       610        97        87
       611       611        97        91
       612       612        97       133
       613       613        97       136
       614       614        97       166
       615       615        98        57
       616       616        98        69
       617       617        98       102
       618       618        98       127
       619       619        98       171
       620       620        98       199
       621       621        99        20
       622       622        99        59
       623       623        99        62
       624       624        99       103
       625       625        99       170
       626       626        99       196
       627       627       100        39
       628       628       100        40
       629       629       100        52
       630       630       100        80
       631       631       100       145
       632       632       100       191
       633       633       101       107
       634       634       101       112
       635       635       101       160
       636       636       101       174
       637       637       101       193
       638       638       101       202
       639       639       102        13
       640       640       102        98
       641       641       102       111
       642       642       102       171
       643       643       102       172
       644       644       102       184
       645       645       103         3
       646       646       103        20
       647       647       103        84
       648       648       103        99
       649       649       103       105
       650       650       104        11
       651       651       104        13
       652       652       104        29
       653       653       104       143
       654       654       104       152
       655       655       105         3
       656       656       105        81
       657       657       105       103
       658       658       105       155
       659       659       105       196
       660       660       106        24
       661       661       106        25
       662       662       106        56
       663       663       106       130
       664       664       106       144
       665       665       107        10
       666       666       107        32
       667       667       107        96
       668       668       107       101
       669       669       107       160
       670       670       107       193
       671       671       108        26
       672       672       108        34
       673       673       108       160
       674       674       108       202
       675       675       109         6
       676       676       109        79
       677       677       109       125
       678       678       109       165
       679       679       109       177
       680       680       109       197
       681       681       110         1
       682       682       110         2
       683       683       110        28
       684       684       110        56
       685       685       110       156
       686       686       110       163
       687       687       111        13
       688       688       111        51
       689       689       111        67
       690       690       111       102
       691       691       111       122
       692       692       111       172
       693       693       112        23
       694       694       112        37
       695       695       112        86
       696       696       112       101
       697       697       112       174
       698       698       112       193
       699       699       113        18
       700       700       113        38
       701       701       113        78
       702       702       113        82
       703       703       113        91
       704       704       114        15
       705       705       114        25
       706       706       114        66
       707       707       114       144
       708       708       114       154
       709       709       115        35
       710       710       115        49
       711       711       115        77
       712       712       115       124
       713       713       115       197
       714       714       116         2
       715       715       116        76
       716       716       116       161
       717       717       116       182
       718       718       116       183
       719       719       116       186
       720       720       117        17
       721       721       117        23
       722       722       117        31
       723       723       117        47
       724       724       117        65
       725       725       118        19
       726       726       118        42
       727       727       118       119
       728       728       118       126
       729       729       118       164
       730       730       118       178
       731       731       119        90
       732       732       119       118
       733       733       119       126
       734       734       119       147
       735       735       119       164
       736       736       120        45
       737       737       120        46
       738       738       120        83
       739       739       120        93
       740       740       120       187
       741       741       121         9
       742       742       121        52
       743       743       121        68
       744       744       121        85
       745       745       121       131
       746       746       121       169
       747       747       122        13
       748       748       122        51
       749       749       122       111
       750       750       122       142
       751       751       122       143
       752       752       122       203
       753       753       123        21
       754       754       123        33
       755       755       123        80
       756       756       123        83
       757       757       123       145
       758       758       124        35
       759       759       124        64
       760       760       124        76
       761       761       124       115
       762       762       124       198
       763       763       125        26
       764       764       125        35
       765       765       125        90
       766       766       125       109
       767       767       125       177
       768       768       126        35
       769       769       126        64
       770       770       126        90
       771       771       126       118
       772       772       126       119
       773       773       126       178
       774       774       127        12
       775       775       127        71
       776       776       127        98
       777       777       127       184
       778       778       127       199
       779       779       128        39
       780       780       128        50
       781       781       128        60
       782       782       128        74
       783       783       128       191
       784       784       128       194
       785       785       129        10
       786       786       129        32
       787       787       129        33
       788       788       129        70
       789       789       129       167
       790       790       130         2
       791       791       130         7
       792       792       130        25
       793       793       130        56
       794       794       130       106
       795       795       130       183
       796       796       131         9
       797       797       131        73
       798       798       131       121
       799       799       131       132
       800       800       131       169
       801       801       131       176
       802       802       132         3
       803       803       132        73
       804       804       132        94
       805       805       132       131
       806       806       132       176
       807       807       132       179
       808       808       133         5
       809       809       133        86
       810       810       133        87
       811       811       133        97
       812       812       133       162
       813       813       133       166
       814       814       134        11
       815       815       134        38
       816       816       134        58
       817       817       134        69
       818       818       134        78
       819       819       135         4
       820       820       135        36
       821       821       135        51
       822       822       135        54
       823       823       135        67
       824       824       135       181
       825       825       136        57
       826       826       136        87
       827       827       136        97
       828       828       136       192
       829       829       136       199
       830       830       137         4
       831       831       137        16
       832       832       137        48
       833       833       137       148
       834       834       137       181
       835       835       138        19
       836       836       138        42
       837       837       138        74
       838       838       138        88
       839       839       138       146
       840       840       139         9
       841       841       139        20
       842       842       139        27
       843       843       139        40
       844       844       139        84
       845       845       140         5
       846       846       140        75
       847       847       140        82
       848       848       140        91
       849       849       140       166
       850       850       140       204
       851       851       141        10
       852       852       141        37
       853       853       141       153
       854       854       141       167
       855       855       141       175
       856       856       141       190
       857       857       142        30
       858       858       142        41
       859       859       142       122
       860       860       142       143
       861       861       142       189
       862       862       142       203
       863       863       143        13
       864       864       143        29
       865       865       143       104
       866       866       143       122
       867       867       143       142
       868       868       143       189
       869       869       144        15
       870       870       144        25
       871       871       144        44
       872       872       144       106
       873       873       144       114
       874       874       145        60
       875       875       145        80
       876       876       145        83
       877       877       145       100
       878       878       145       123
       879       879       145       191
       880       880       146        42
       881       881       146        50
       882       882       146        66
       883       883       146        74
       884       884       146       138
       885       885       146       154
       886       886       147        26
       887       887       147        31
       888       888       147        47
       889       889       147        90
       890       890       147       119
       891       891       148        24
       892       892       148        48
       893       893       148        54
       894       894       148       137
       895       895       148       159
       896       896       148       180
       897       897       149        36
       898       898       149        43
       899       899       149        44
       900       900       149        54
       901       901       149       180
       902       902       150        15
       903       903       150        43
       904       904       150        46
       905       905       150        50
       906       906       150       187
       907       907       150       194
       908       908       151        68
       909       909       151        70
       910       910       151        72
       911       911       151       167
       912       912       151       175
       913       913       151       188
       914       914       152        11
       915       915       152        29
       916       916       152        58
       917       917       152        77
       918       918       152       104
       919       919       153        71
       920       920       153        72
       921       921       153       141
       922       922       153       175
       923       923       153       190
       924       924       153       192
       925       925       154        15
       926       926       154        50
       927       927       154        66
       928       928       154       114
       929       929       154       146
       930       930       155        75
       931       931       155        92
       932       932       155       105
       933       933       155       195
       934       934       155       196
       935       935       156        24
       936       936       156        28
       937       937       156        56
       938       938       156       110
       939       939       156       159
       940       940       157        20
       941       941       157        27
       942       942       157        59
       943       943       157        61
       944       944       157       168
       945       945       158        36
       946       946       158        43
       947       947       158        46
       948       948       158        89
       949       949       158       201
       950       950       159        24
       951       951       159        28
       952       952       159        48
       953       953       159       148
       954       954       159       156
       955       955       160        34
       956       956       160        96
       957       957       160       101
       958       958       160       107
       959       959       160       108
       960       960       161         1
       961       961       161         2
       962       962       161        18
       963       963       161       116
       964       964       161       186
       965       965       162         5
       966       966       162        23
       967       967       162        65
       968       968       162        86
       969       969       162       133
       970       970       163         1
       971       971       163        28
       972       972       163        81
       973       973       163       110
       974       974       163       195
       975       975       164        19
       976       976       164        31
       977       977       164       118
       978       978       164       119
       979       979       164       200
       980       980       165         6
       981       981       165        29
       982       982       165        77
       983       983       165       109
       984       984       165       197
       985       985       166         5
       986       986       166        91
       987       987       166        97
       988       988       166       133
       989       989       166       140
       990       990       167        10
       991       991       167        70
       992       992       167       129
       993       993       167       141
       994       994       167       151
       995       995       167       175
       996       996       168        17
       997       997       168        59
       998       998       168        61
       999       999       168       157
      1000      1000       168       200
      1001      1001       169        14
      1002      1002       169        68
      1003      1003       169        73
      1004      1004       169       121
      1005      1005       169       131
      1006      1006       170        62
      1007      1007       170        75
      1008      1008       170        99
      1009      1009       170       196
      1010      1010       170       204
      1011      1011       171        11
      1012      1012       171        13
      1013      1013       171        69
      1014      1014       171        98
      1015      1015       171       102
      1016      1016       172        67
      1017      1017       172        95
      1018      1018       172       102
      1019      1019       172       111
      1020      1020       172       184
      1021      1021       173        12
      1022      1022       173        14
      1023      1023       173        63
      1024      1024       173        72
      1025      1025       173       188
      1026      1026       174        23
      1027      1027       174        47
      1028      1028       174       101
      1029      1029       174       112
      1030      1030       174       202
      1031      1031       175        72
      1032      1032       175       141
      1033      1033       175       151
      1034      1034       175       153
      1035      1035       175       167
      1036      1036       176         3
      1037      1037       176         9
      1038      1038       176        84
      1039      1039       176       131
      1040      1040       176       132
      1041      1041       177        26
      1042      1042       177        79
      1043      1043       177       109
      1044      1044       177       125
      1045      1045       178         8
      1046      1046       178        42
      1047      1047       178        64
      1048      1048       178       118
      1049      1049       178       126
      1050      1050       179        16
      1051      1051       179        48
      1052      1052       179        73
      1053      1053       179        94
      1054      1054       179       132
      1055      1055       180        24
      1056      1056       180        44
      1057      1057       180        54
      1058      1058       180       148
      1059      1059       180       149
      1060      1060       181         4
      1061      1061       181        54
      1062      1062       181       135
      1063      1063       181       137
      1064      1064       182        49
      1065      1065       182        76
      1066      1066       182       116
      1067      1067       182       185
      1068      1068       183         2
      1069      1069       183         7
      1070      1070       183       116
      1071      1071       183       130
      1072      1072       184        12
      1073      1073       184        95
      1074      1074       184       102
      1075      1075       184       127
      1076      1076       184       172
      1077      1077       185        58
      1078      1078       185        78
      1079      1079       185       182
      1080      1080       185       186
      1081      1081       186        18
      1082      1082       186        78
      1083      1083       186       116
      1084      1084       186       161
      1085      1085       186       185
      1086      1086       187        46
      1087      1087       187        60
      1088      1088       187       120
      1089      1089       187       150
      1090      1090       187       194
      1091      1091       188        14
      1092      1092       188        68
      1093      1093       188        72
      1094      1094       188       151
      1095      1095       188       173
      1096      1096       189         6
      1097      1097       189        29
      1098      1098       189        30
      1099      1099       189       142
      1100      1100       189       143
      1101      1101       190        37
      1102      1102       190        87
      1103      1103       190       141
      1104      1104       190       153
      1105      1105       190       192
      1106      1106       191        39
      1107      1107       191        60
      1108      1108       191       100
      1109      1109       191       128
      1110      1110       191       145
      1111      1111       192        71
      1112      1112       192       136
      1113      1113       192       153
      1114      1114       192       190
      1115      1115       193        10
      1116      1116       193        37
      1117      1117       193       101
      1118      1118       193       107
      1119      1119       193       112
      1120      1120       194        50
      1121      1121       194        60
      1122      1122       194       128
      1123      1123       194       150
      1124      1124       194       187
      1125      1125       195         1
      1126      1126       195        81
      1127      1127       195        92
      1128      1128       195       155
      1129      1129       195       163
      1130      1130       196        75
      1131      1131       196        99
      1132      1132       196       105
      1133      1133       196       155
      1134      1134       196       170
      1135      1135       197        35
      1136      1136       197       109
      1137      1137       197       115
      1138      1138       197       165
      1139      1139       198         7
      1140      1140       198         8
      1141      1141       198        64
      1142      1142       198        76
      1143      1143       198       124
      1144      1144       199        57
      1145      1145       199        71
      1146      1146       199        98
      1147      1147       199       127
      1148      1148       199       136
      1149      1149       200        31
      1150      1150       200        61
      1151      1151       200       164
      1152      1152       200       168
      1153      1153       201        41
      1154      1154       201        46
      1155      1155       201        89
      1156      1156       201        93
      1157      1157       201       158
      1158      1158       202        26
      1159      1159       202        47
      1160      1160       202       101
      1161      1161       202       108
      1162      1162       202       174
      1163      1163       203        41
      1164      1164       203        51
      1165      1165       203        89
      1166      1166       203       122
      1167      1167       203       142
      1168      1168       204         5
      1169      1169       204        62
      1170      1170       204        75
      1171      1171       204       140
      1172      1172       204       170

Angle Coeffs # ['angleID', 'energy', 'value (deg)']

   1317   0.000000  58.586502
   1721   0.000000  88.514962
    508   0.000000 146.721456
    830   0.000000 129.049054
    832   0.000000 172.106944
   1678   0.000000  54.001941
   1851   0.000000  71.988463
   2520   0.000000  64.416491
    326   0.000000 161.345143
    947   0.000000  51.477863
   2661   0.000000  55.116823
    729   0.000000  51.804641
    928   0.000000  46.357670
   2505   0.000000 177.646757
    705   0.000000 156.803379
   2353   0.000000  57.322462
   1668   0.000000  66.231180
   1887   0.000000 114.090549
   1596   0.000000  60.279405
    149   0.000000 148.588137
   2588   0.000000 142.250768
   1703   0.000000 152.953888
   1010   0.000000 119.446728
    281   0.000000  97.214046
    198   0.000000  49.032248
   1101   0.000000  51.864560
   2155   0.000000 139.549026
   1117   0.000000  99.875386
    616   0.000000  59.260394
   2410   0.000000 132.292057
   1006   0.000000  61.046870
    277   0.000000  56.656913
   2118   0.000000 149.126843
   1877   0.000000  77.415662
   1165   0.000000  59.206612
   2241   0.000000  91.761151
    110   0.000000  53.949853
   1831   0.000000 126.684084
   1210   0.000000  98.711326
   1527   0.000000 132.925424
   2703   0.000000 145.931190
   2428   0.000000 142.787061
    952   0.000000  43.976635
   1400   0.000000 107.498797
   2013   0.000000 108.494476
   1052   0.000000  65.616395
     33   0.000000 159.667025
    823   0.000000  50.311304
   1479   0.000000  63.107321
   1005   0.000000  59.541201
   2283   0.000000  62.749243
   2325   0.000000 113.508260
     50   0.000000  55.924305
   1613   0.000000  64.033077
    489   0.000000  98.696807
   2391   0.000000  72.654200
   1918   0.000000 168.496157
    146   0.000000 143.197388
   1839   0.000000  60.185736
   2439   0.000000  76.548448
     59   0.000000 148.893378
    618   0.000000 107.427544
   2741   0.000000  75.371867
    241   0.000000  92.265329
   2647   0.000000 149.385775
    751   0.000000 176.576893
   2355   0.000000  60.188695
    941   0.000000 107.020002
    222   0.000000 100.328954
   2091   0.000000  54.869027
   2108   0.000000 116.149666
   1651   0.000000  49.035502
   2253   0.000000 179.038064
   2737   0.000000  69.092146
   2431   0.000000  73.183723
   2822   0.000000 156.556598
    436   0.000000  56.980640
   1781   0.000000  59.508716
    284   0.000000 117.643423
   1833   0.000000 172.712854
   1265   0.000000  62.824291
   2409   0.000000 164.662337
    858   0.000000  43.432878
   2180   0.000000 130.357796
    610   0.000000  69.914209
   2732   0.000000 179.347307
   2830   0.000000  79.502882
   1029   0.000000  62.138078
   2718   0.000000  69.569996
    101   0.000000  48.000607
   1242   0.000000 165.007874
   1760   0.000000 124.229801
   2005   0.000000 108.659553
    380   0.000000  53.610879
   1261   0.000000 120.589614
    390   0.000000 100.700674
   2774   0.000000 118.021324
    937   0.000000  51.971804
   1155   0.000000 136.577530
   1311   0.000000 127.632355
   1173   0.000000 133.229141
   1702   0.000000 153.663143
    252   0.000000  50.574782
    449   0.000000  64.004269
    638   0.000000 110.278756
   1944   0.000000 123.662133
   1640   0.000000 160.964030
    433   0.000000 100.143015
   2378   0.000000 153.288811
   1900   0.000000  66.600189
   1039   0.000000  59.156348
     79   0.000000 105.068105
    711   0.000000 145.725725
   2157   0.000000 149.671742
   1881   0.000000 174.800213
   2401   0.000000 125.390995
   1376   0.000000 149.240513
   2708   0.000000  61.226229
    387   0.000000 104.376935
   2077   0.000000  52.281778
   1051   0.000000  73.654923
    396   0.000000 152.977383
   1375   0.000000  97.991345
   2055   0.000000 166.830480
   1324   0.000000  54.188534
   2458   0.000000  69.956833
   1730   0.000000 168.284279
   1738   0.000000  80.190913
   1956   0.000000 115.308448
   2667   0.000000  70.663780
   2817   0.000000  79.340515
   1652   0.000000 159.851162
    994   0.000000  59.060730
   2723   0.000000 133.794588
   1120   0.000000 149.058280
   1423   0.000000 119.286718
     38   0.000000  47.646086
   1819   0.000000 128.955495
   1054   0.000000 174.981224
   2719   0.000000 146.107251
   1595   0.000000  60.026446
   1908   0.000000 137.696217
   1332   0.000000  96.126662
   2472   0.000000 150.994603
   1171   0.000000  70.493235
    568   0.000000 100.882454
    716   0.000000  56.423341
    667   0.000000 101.178798
   1235   0.000000 119.974801
   2075   0.000000 131.939570
   1356   0.000000  58.656893
    833   0.000000 170.744411
    384   0.000000 154.085034
    835   0.000000 111.900409
   1661   0.000000 123.506986
    342   0.000000  51.588831
    735   0.000000  44.734731
   1660   0.000000  58.695318
    364   0.000000 150.546786
    430   0.000000  50.220191
    276   0.000000  47.953107
   1710   0.000000  98.456514
    498   0.000000  46.304319
   2154   0.000000  76.008425
   1241   0.000000  59.528265
    988   0.000000 104.559166
   2552   0.000000 133.350042
   2182   0.000000  55.245219
    663   0.000000  47.673327
     36   0.000000 160.963374
   1545   0.000000 118.019830
   1581   0.000000 176.243377
    534   0.000000 144.186202
    934   0.000000  51.329207
   2515   0.000000 150.660279
   2518   0.000000 136.032147
   1160   0.000000 115.369978
   2775   0.000000 121.850419
   1150   0.000000 168.729955
   2186   0.000000  55.715284
   1937   0.000000 110.608694
   2810   0.000000 135.054409
    602   0.000000 142.518302
    743   0.000000 172.692407
   1752   0.000000 136.023955
    329   0.000000 106.296007
   2104   0.000000 118.200158
   1450   0.000000  60.038426
   1142   0.000000 115.821329
    131   0.000000  53.931112
    535   0.000000  95.850029
   1562   0.000000  52.382671
     58   0.000000  52.358156
    609   0.000000  66.467549
   2143   0.000000  75.459306
   2318   0.000000 156.775506
    899   0.000000  45.134785
   2516   0.000000  63.178053
    846   0.000000 156.988664
   2096   0.000000 120.051962
   1081   0.000000  44.741290
   1124   0.000000  42.494990
      2   0.000000 160.400180
    821   0.000000 169.497822
   1874   0.000000  76.206848
     45   0.000000 103.878976
    360   0.000000  55.015751
   1567   0.000000  63.185403
   1929   0.000000 127.942721
   1439   0.000000  59.518533
   2799   0.000000 128.345383
   1183   0.000000  50.558374
   2357   0.000000 126.557173
   2755   0.000000 129.440492
   1413   0.000000 121.439036
   2049   0.000000 104.590499
    176   0.000000  50.480417
   1592   0.000000 114.301377
   1873   0.000000  66.144191
   1399   0.000000 178.684800
   1460   0.000000 118.697338
    961   0.000000  59.726225
   1074   0.000000 158.247546
   2158   0.000000 144.442549
    866   0.000000 107.969750
   1114   0.000000 165.760241
   2045   0.000000 146.117590
    570   0.000000  44.750685
   2820   0.000000 141.884803
    930   0.000000 102.787706
   1924   0.000000 173.657345
   2455   0.000000 146.041889
   1782   0.000000 113.008760
    456   0.000000  49.294846
     83   0.000000  41.880271
   1038   0.000000 165.551551
    515   0.000000  45.479836
    569   0.000000 154.464239
    807   0.000000  82.051276
   1207   0.000000 111.596342
   2070   0.000000  60.646704
   2228   0.000000 133.305346
   2750   0.000000 134.515669
    158   0.000000  47.505420
    204   0.000000 160.713884
    973   0.000000 120.858863
   1580   0.000000  63.244336
   2193   0.000000 130.051715
   2762   0.000000  62.440294
   2219   0.000000 118.055788
    237   0.000000 161.426330
     17   0.000000  49.521707
    646   0.000000 106.463106
    411   0.000000 156.026944
   2479   0.000000 149.159426
   1765   0.000000  61.325191
   2328   0.000000  53.892917
    152   0.000000 102.963154
   1019   0.000000  63.100649
   1402   0.000000  49.129028
   2224   0.000000  53.796282
    432   0.000000  49.938183
    612   0.000000 123.397852
   2444   0.000000 135.473087
    935   0.000000 161.496162
   2592   0.000000  71.731449
   2376   0.000000 138.033438
   1594   0.000000 175.681371
    591   0.000000 153.664343
   1925   0.000000  63.319058
    477   0.000000  96.688355
   2281   0.000000 143.987323
   1291   0.000000 132.031321
   2065   0.000000  68.585830
   1442   0.000000  65.895006
     77   0.000000 134.872261
   1758   0.000000 177.607456
    855   0.000000  49.914654
   2538   0.000000 143.304526
    189   0.000000 105.065745
    109   0.000000  98.907743
   2194   0.000000 111.337537
    537   0.000000 169.453432
   1553   0.000000 164.848662
   1572   0.000000  62.952509
    757   0.000000  92.791926
   2474   0.000000  73.734192
   1606   0.000000 179.573272
   2600   0.000000 138.951898
   2277   0.000000 133.319890
   1009   0.000000  62.730542
    424   0.000000  58.187745
   2627   0.000000  75.503755
   1621   0.000000 104.855339
     26   0.000000  57.897534
   2629   0.000000 134.709063
   1706   0.000000 106.699202
   1168   0.000000 122.198092
   1717   0.000000 159.519544
    429   0.000000 100.327126
   2038   0.000000 117.123734
   1252   0.000000  66.165402
    476   0.000000 173.864555
    253   0.000000 146.452791
   2231   0.000000  60.941773
   2360   0.000000 119.218899
   1920   0.000000  63.091409
   1358   0.000000  73.466169
   2160   0.000000  73.663317
   1675   0.000000 113.558831
   2422   0.000000 133.781796
   1911   0.000000 130.754831
   1893   0.000000 163.529075
    114   0.000000 163.524278
   2101   0.000000  52.339433
   1957   0.000000  59.297933
   2211   0.000000 123.622446
   2092   0.000000 113.581152
   1631   0.000000 115.391227
    712   0.000000  54.175646
    544   0.000000 157.550631
   1307   0.000000 165.375848
    302   0.000000  86.507546
   1371   0.000000  99.167066
   1405   0.000000  59.096716
   2494   0.000000 126.947050
   2831   0.000000  72.181024
   2642   0.000000 161.716326
    514   0.000000 145.717518
    984   0.000000  58.232556
   2068   0.000000  63.353740
   1414   0.000000 166.239753
     55   0.000000 108.066787
   1967   0.000000  53.346349
     92   0.000000 154.932963
   2696   0.000000  68.258727
   2419   0.000000 146.708721
    958   0.000000  63.985624
   1506   0.000000 115.881414
   2377   0.000000  71.854955
   1236   0.000000 133.296804
   1139   0.000000 112.984619
   1392   0.000000 103.931705
   1474   0.000000 171.430931
   2090   0.000000  58.596038
   1153   0.000000 174.788856
    107   0.000000 151.881543
   1674   0.000000 132.527585
   2214   0.000000 121.249595
    583   0.000000  61.561197
   1718   0.000000 171.757005
    868   0.000000  56.282711
   1244   0.000000 116.413556
   1266   0.000000  60.801420
   1104   0.000000 115.141464
    722   0.000000 165.484200
   1377   0.000000  51.249169
   1088   0.000000  98.472158
   2812   0.000000  75.425117
     18   0.000000  89.238610
    243   0.000000  51.183015
   1711   0.000000  55.975698
   2591   0.000000 144.580643
   2063   0.000000 174.447197
   1192   0.000000  65.247775
   2202   0.000000 160.892278
    806   0.000000 166.630751
   1615   0.000000 107.619768
    205   0.000000 156.127458
   2210   0.000000 178.175671
   2611   0.000000 142.160922
   2678   0.000000 165.123299
   2838   0.000000 145.276524
    985   0.000000 171.864491
   2004   0.000000 131.684884
    354   0.000000  46.459042
    598   0.000000 100.031631
   1318   0.000000  54.323783
    262   0.000000  50.854882
    309   0.000000 166.256847
   1960   0.000000 116.222062
   2167   0.000000  66.485000
    226   0.000000 162.146555
    799   0.000000 170.272159
   2082   0.000000  63.914868
    975   0.000000 175.838299
   1569   0.000000  61.842799
   1446   0.000000 123.096675
   2329   0.000000 176.137696
    112   0.000000  54.313564
   2020   0.000000  61.158179
   2255   0.000000 126.222093
   1276   0.000000 158.596194
   1336   0.000000  45.086189
    160   0.000000 105.442950
   2285   0.000000 106.352138
     11   0.000000 113.493072
    267   0.000000 152.494021
   2432   0.000000  79.989596
    565   0.000000  51.098523
    750   0.000000 117.962258
   2139   0.000000  74.928928
   2203   0.000000 109.640623
   1618   0.000000 171.652845
   2201   0.000000  51.251655
   1076   0.000000 104.235755
   2150   0.000000 121.242702
    864   0.000000  48.410860
   1564   0.000000 168.523137
    754   0.000000 114.754123
    599   0.000000 166.079410
   1149   0.000000 134.034082
    668   0.000000  59.810842
    687   0.000000  99.412428
    650   0.000000  98.077736
    462   0.000000 114.431679
   1103   0.000000  49.097175
   1688   0.000000  61.659139
   2752   0.000000 153.521645
    338   0.000000  55.634360
    363   0.000000  97.842042
   2504   0.000000 119.096498
    546   0.000000 107.752831
   2009   0.000000  62.322825
   1126   0.000000 132.943586
   2606   0.000000  73.909214
    129   0.000000 122.042755
   2674   0.000000 136.789650
   1284   0.000000 140.784082
   1672   0.000000 128.692898
    903   0.000000  96.756797
     60   0.000000 104.539695
   1178   0.000000 105.668486
    800   0.000000  51.239815
   2461   0.000000 140.768178
    300   0.000000  43.545602
   2321   0.000000  99.056153
   1383   0.000000 166.608207
   1915   0.000000 112.728314
    571   0.000000 104.653306
    901   0.000000 157.614441
   2523   0.000000 142.814731
    256   0.000000 159.831680
   2029   0.000000 105.702305
   2487   0.000000  71.258441
   2205   0.000000 179.449977
   2121   0.000000  99.568839
   2346   0.000000 116.122112
    470   0.000000 110.201346
    269   0.000000 115.353769
    500   0.000000 150.448541
    819   0.000000  54.403231
    192   0.000000  57.347690
    260   0.000000  53.715529
   2398   0.000000 162.748955
   1260   0.000000 177.510444
   2442   0.000000  71.563134
   1119   0.000000 164.846328
   2174   0.000000 113.185967
    233   0.000000 139.228131
   2773   0.000000 175.788730
   1079   0.000000  96.867345
   1457   0.000000  64.487113
   1228   0.000000  59.277146
   1128   0.000000  58.170392
   1443   0.000000 108.382800
   1118   0.000000 142.370376
   1981   0.000000  60.285335
   2788   0.000000 140.005875
     27   0.000000 144.913220
   2433   0.000000 153.173320
    134   0.000000 108.887057
   1622   0.000000  47.286932
   2471   0.000000  60.913099
   2791   0.000000 167.402626
   1566   0.000000 114.110519
   2177   0.000000  60.740952
   2648   0.000000  87.570103
   2673   0.000000 161.906840
     82   0.000000  83.957300
    566   0.000000 155.751829
     63   0.000000  44.353683
   2529   0.000000 137.610430
   1438   0.000000 125.413539
   1589   0.000000  55.210250
   1106   0.000000  55.944513
   1287   0.000000  74.530242
    142   0.000000  52.896168
   2619   0.000000 155.333795
   1455   0.000000  63.034583
   1823   0.000000 108.916687
   2666   0.000000 144.619802
   2459   0.000000  70.811345
    356   0.000000  98.656284
    619   0.000000  54.164808
   1301   0.000000 169.042083
    747   0.000000  62.137218
   1541   0.000000 176.732607
    897   0.000000  94.190035
    422   0.000000 118.616557
    911   0.000000 132.459969
   1278   0.000000  94.393203
   1959   0.000000  63.120539
   1368   0.000000 151.714927
   2639   0.000000 104.856057
   1486   0.000000 107.672231
   2614   0.000000  70.812590
   1850   0.000000  75.814874
    218   0.000000 157.514703
    853   0.000000 108.423878
   1814   0.000000  55.858803
   2386   0.000000 144.561349
    700   0.000000 150.624524
    348   0.000000 153.981565
   1345   0.000000  56.141834
   1384   0.000000 105.806434
   2470   0.000000  67.378576
    270   0.000000 172.010682
   1397   0.000000 122.945431
   1843   0.000000 177.796035
   1036   0.000000 155.493446
    688   0.000000  51.212096
    191   0.000000 151.477296
    474   0.000000 158.404380
    325   0.000000 107.712496
    439   0.000000 154.336213
    502   0.000000 153.452081
    376   0.000000 152.304086
   1936   0.000000 127.730559
    564   0.000000  49.783932
    371   0.000000 104.098217
   1530   0.000000  47.101761
    968   0.000000 173.259547
   1612   0.000000 170.148281
   2623   0.000000  67.065574
   2334   0.000000  57.127474
    238   0.000000 106.308341
    661   0.000000 107.484169
   2339   0.000000 115.108887
    145   0.000000 111.359662
    169   0.000000 162.577067
   1776   0.000000 131.771964
    406   0.000000  51.731553
   1017   0.000000  63.734822
   2069   0.000000 115.131948
   1994   0.000000 106.624498
   1849   0.000000 160.043680
    426   0.000000 120.640198
   1421   0.000000  54.285266
   1646   0.000000 107.278420
   2336   0.000000  51.400641
   2392   0.000000 135.527161
   1292   0.000000 176.207650
   2783   0.000000  68.584734
    103   0.000000  97.572650
   2298   0.000000 106.173729
   2501   0.000000  58.454087
   1045   0.000000 113.695201
   2366   0.000000  71.093390
    400   0.000000  49.243244
   2122   0.000000  64.543203
    431   0.000000 161.394029
   1249   0.000000  48.594318
   2651   0.000000  73.680489
   2344   0.000000  62.148851
   2767   0.000000  59.587515
    125   0.000000 147.585457
   1347   0.000000 173.095467
   2701   0.000000 140.984481
    717   0.000000 109.060859
    298   0.000000  42.961945
   1766   0.000000 173.944372
   2133   0.000000 119.055106
   2361   0.000000 118.983869
   1085   0.000000 150.598212
    704   0.000000 105.283187
    766   0.000000  55.976067
    672   0.000000  55.413281
   1901   0.000000  76.617728
     57   0.000000  95.035363
   1898   0.000000 152.559122
   1424   0.000000  58.460989
    809   0.000000 153.121562
   2396   0.000000 158.216535
    601   0.000000  93.888959
   2286   0.000000 172.876688
   1205   0.000000  51.954633
    664   0.000000 149.332195
    957   0.000000 122.754830
    313   0.000000  98.791023
   2144   0.000000  66.239394
   1363   0.000000 155.688778
     71   0.000000  56.343801
    575   0.000000 125.482642
   1121   0.000000 106.563290
   2385   0.000000  71.907149
    445   0.000000 111.173838
   1700   0.000000 150.361159
    606   0.000000 113.330540
    724   0.000000  54.376297
   1334   0.000000 141.212851
   2288   0.000000  52.623517
    709   0.000000 114.751971
   2635   0.000000 172.224280
    428   0.000000 155.443596
    117   0.000000  56.699668
   2161   0.000000  66.305757
   2233   0.000000  60.571888
   2456   0.000000  73.189933
    516   0.000000  43.656698
    421   0.000000  60.428812
    675   0.000000 173.062446
   1585   0.000000  56.467067
    917   0.000000 102.817190
   1198   0.000000  51.888649
   2776   0.000000  69.960013
    923   0.000000 109.329126
   1256   0.000000 126.018444
    374   0.000000  50.713857
   1845   0.000000 119.472532
   1694   0.000000 179.687267
   2132   0.000000  45.056936
    202   0.000000  50.443146
   1279   0.000000  46.390879
   1273   0.000000  54.294177
   1815   0.000000  62.828290
   2405   0.000000 173.127058
   2072   0.000000 112.928482
    171   0.000000 103.041072
   2149   0.000000 147.960873
   1692   0.000000  62.103996
    316   0.000000 143.697783
    127   0.000000  66.956185
   1832   0.000000  46.028770
   2400   0.000000 136.817437
   1509   0.000000  58.623150
   2478   0.000000  70.921148
   1366   0.000000 107.770880
   2343   0.000000 178.270963
    943   0.000000 150.996637
   2514   0.000000  73.307574
   2243   0.000000 128.801383
    816   0.000000  97.307360
   2026   0.000000  66.908052
   2412   0.000000  59.199162
   1995   0.000000 168.642853
   2778   0.000000 168.189568
   2806   0.000000 174.406993
   2311   0.000000  73.037866
    257   0.000000  47.674299
   2010   0.000000 170.817301
   2466   0.000000 130.510051
   1629   0.000000  60.477444
   2363   0.000000  54.270263
    915   0.000000  51.153681
     85   0.000000  55.617646
   1410   0.000000  60.388283
   2465   0.000000  69.596953
   1262   0.000000  57.765323
    322   0.000000  55.730586
   2728   0.000000 135.511406
    870   0.000000  46.815875
   2306   0.000000 119.411307
    814   0.000000 151.710591
    261   0.000000  98.778492
   1751   0.000000 132.742867
   1980   0.000000 172.952390
   1245   0.000000 135.463861
    100   0.000000 145.573256
   1100   0.000000 131.582286
    970   0.000000 177.895483
   1321   0.000000 161.332565
     40   0.000000 139.238926
   1243   0.000000  62.477225
   2709   0.000000  84.311883
     52   0.000000  92.969073
    815   0.000000  93.194817
    536   0.000000  52.731153
    860   0.000000 144.732634
   2052   0.000000 122.375723
   1913   0.000000  54.702641
   2526   0.000000 139.249775
   2239   0.000000  68.744835
   2681   0.000000  72.365993
    438   0.000000  55.116470
    239   0.000000  54.417173
   1164   0.000000 176.490333
    844   0.000000  93.903233
    487   0.000000 143.456426
   2312   0.000000 172.094019
   2411   0.000000 122.244768
   1177   0.000000 155.288052
    699   0.000000 156.665012
   2042   0.000000  70.008900
    936   0.000000 146.783704
   2284   0.000000 114.620993
    890   0.000000  54.354560
   2035   0.000000  54.306447
   2803   0.000000 121.600926
    707   0.000000  94.594463
    427   0.000000 104.413389
    763   0.000000  96.477883
   1666   0.000000  52.305117
   2404   0.000000 100.034163
   1220   0.000000 104.295455
   1985   0.000000  51.909503
    906   0.000000 133.925769
   2632   0.000000  67.210649
   1350   0.000000 125.083044
   1609   0.000000  65.485806
   1665   0.000000 125.492579
   2729   0.000000 114.895985
    184   0.000000 157.988793
   1504   0.000000 175.621380
    346   0.000000  53.726271
    674   0.000000 111.117195
   1699   0.000000  53.316233
     34   0.000000 108.740134
   2657   0.000000 122.303697
   1865   0.000000 146.334820
    206   0.000000  98.451666
   1880   0.000000  55.805467
    486   0.000000  44.687471
   1435   0.000000 125.370141
    305   0.000000  58.481297
   1838   0.000000 170.116840
     16   0.000000 108.431117
   2749   0.000000  71.962685
   2002   0.000000 132.805534
    328   0.000000  52.663360
    359   0.000000 108.485924
   1992   0.000000  55.438808
   1789   0.000000  63.385389
   1524   0.000000 111.327588
   2056   0.000000 133.033778
   1993   0.000000  70.318662
   2001   0.000000 169.861727
   1425   0.000000 178.509552
   1800   0.000000  71.714242
    249   0.000000 155.569652
    157   0.000000 152.948369
   2289   0.000000 139.026869
   1492   0.000000  49.156508
   1500   0.000000 113.761411
    153   0.000000  95.643595
    398   0.000000 154.018550
    673   0.000000 167.894721
   1441   0.000000 177.384792
   2198   0.000000 108.166242
   2646   0.000000 117.892756
   1854   0.000000 127.967857
   1174   0.000000 177.151293
   2117   0.000000  77.541524
   1213   0.000000 102.004205
   1840   0.000000 117.610298
   2264   0.000000 116.343569
    850   0.000000  97.929418
   1664   0.000000 125.462843
   2032   0.000000  51.395858
   2846   0.000000 138.672794
      9   0.000000  48.837201
   1663   0.000000  52.334853
    227   0.000000 102.801017
    455   0.000000 139.700852
    102   0.000000  49.849178
   2435   0.000000  75.528440
     94   0.000000 157.066430
    350   0.000000 107.165490
    611   0.000000 129.174603
   1863   0.000000  78.255233
   2317   0.000000 168.593813
   1531   0.000000 170.733462
    234   0.000000  46.962802
   1919   0.000000 131.056029
   2018   0.000000 125.095361
    404   0.000000 108.610887
    306   0.000000 157.272320
   2593   0.000000  73.346692
   2053   0.000000  52.071474
   2162   0.000000  70.779232
    842   0.000000  50.470355
    608   0.000000  53.357399
     91   0.000000 111.661168
    884   0.000000 105.037779
   1716   0.000000 110.635739
    460   0.000000 103.289587
     12   0.000000 140.944368
   2695   0.000000 149.053250
   1024   0.000000  58.539067
    135   0.000000 120.887298
   1388   0.000000 134.318977
    584   0.000000 122.592485
   1798   0.000000 129.952156
   1202   0.000000  97.737699
     31   0.000000 166.735877
   2786   0.000000 144.586636
      6   0.000000 147.894063
   2637   0.000000  82.919663
   1422   0.000000 175.262947
   1476   0.000000 112.020295
    641   0.000000 134.195737
   1591   0.000000 125.186336
   2131   0.000000 164.112042
   2425   0.000000 144.827051
   1014   0.000000 174.625462
   1417   0.000000  44.800717
   1444   0.000000  57.201669
   1131   0.000000 177.130622
   1826   0.000000  65.159328
   1550   0.000000  55.637015
   1859   0.000000 148.304172
   2220   0.000000  64.259507
   1704   0.000000  50.723504
   2650   0.000000 123.044122
    922   0.000000 101.031876
   1048   0.000000 159.442660
     65   0.000000 170.397030
    719   0.000000 110.799638
   2844   0.000000  73.066450
    385   0.000000  48.214171
   2617   0.000000 151.674427
   2713   0.000000 154.180190
     51   0.000000 108.282460
   1990   0.000000  65.599677
    193   0.000000 107.790836
   2843   0.000000  69.202047
   1746   0.000000  72.436021
   1732   0.000000  62.189028
    355   0.000000 153.672035
   2369   0.000000 150.958766
   2777   0.000000 178.890301
   1670   0.000000  66.296405
   2057   0.000000  52.519024
    738   0.000000 179.995099
    165   0.000000 109.508335
   1846   0.000000  52.711319
    879   0.000000 103.098586
   2076   0.000000 123.300860
     47   0.000000 107.227646
   1041   0.000000 106.395203
    504   0.000000  49.307859
    660   0.000000  41.848026
   2080   0.000000  69.038915
   2671   0.000000  61.977824
   1503   0.000000 116.427159
   1110   0.000000  51.869383
   2136   0.000000 144.917142
     89   0.000000 147.315923
    665   0.000000 109.489007
    798   0.000000 164.671682
    949   0.000000 109.524358
   1835   0.000000  70.410627
   2717   0.000000 131.895324
    382   0.000000  53.323859
    920   0.000000 152.695385
   2156   0.000000  73.243268
    953   0.000000 154.778874
   1234   0.000000  60.266107
    292   0.000000 124.629895
   1864   0.000000  75.183834
   2014   0.000000  66.871795
   2436   0.000000 148.875249
   2074   0.000000  52.477791
   2036   0.000000 129.642093
   2265   0.000000  60.786773
    219   0.000000  49.728088
   1750   0.000000 168.481924
     41   0.000000  52.223240
     37   0.000000  91.592841
    848   0.000000 107.074010
   2571   0.000000  70.529038
   2827   0.000000 136.799082
    245   0.000000  41.082314
   2561   0.000000  70.055327
    368   0.000000  56.595422
   2438   0.000000 147.855241
   1319   0.000000 112.775036
    579   0.000000  59.334050
    370   0.000000 103.597697
    826   0.000000  62.416840
   2469   0.000000  80.713723
    367   0.000000 101.574813
    796   0.000000 113.277042
   1709   0.000000 100.346910
    790   0.000000  47.902656
    604   0.000000 176.755251
   2468   0.000000 141.626821
   1802   0.000000  58.237914
   1763   0.000000  58.162743
   1248   0.000000 102.530649
   2652   0.000000 163.275389
    391   0.000000 100.238917
   1351   0.000000  51.139411
   1907   0.000000  53.807626
    454   0.000000  53.994741
   1499   0.000000 145.927631
   1693   0.000000 125.151716
    168   0.000000 152.979115
   2486   0.000000  74.228670
   1515   0.000000 173.685423
   2477   0.000000 137.928040
   1780   0.000000  53.500044
   1021   0.000000 121.639715
   2566   0.000000 146.028473
   2670   0.000000 123.281335
   1340   0.000000 106.041421
   2608   0.000000 139.175436
   2751   0.000000  69.517896
    183   0.000000  98.600813
     14   0.000000  91.422661
    341   0.000000 157.709006
    467   0.000000 142.278734
    247   0.000000  98.249081
   1108   0.000000  93.113767
   2537   0.000000 148.205630
   1607   0.000000  59.267421
   1954   0.000000 128.469490
    841   0.000000  59.743471
    453   0.000000  50.427410
   1436   0.000000  60.352053
   2324   0.000000  70.354044
    955   0.000000 177.271285
   2450   0.000000 152.477898
    991   0.000000 171.036317
   2290   0.000000  58.255695
   1097   0.000000 163.245003
    726   0.000000  99.111028
    759   0.000000  55.510011
   1308   0.000000  66.991797
    893   0.000000 154.347860
   2172   0.000000 156.211722
    111   0.000000  48.677714
   2017   0.000000 128.029974
    585   0.000000 175.414127
   1950   0.000000  56.667629
   2485   0.000000 145.507274
   2522   0.000000 131.426822
   1673   0.000000  59.556890
   1003   0.000000  57.681738
   1271   0.000000  97.794774
    282   0.000000  42.007995
   1724   0.000000  99.728032
   2821   0.000000 123.263575
    554   0.000000 151.932216
    825   0.000000 126.838750
    636   0.000000  57.578427
   2292   0.000000 167.244510
   2003   0.000000 118.699990
   1316   0.000000  48.724273
   1247   0.000000 175.941821
    440   0.000000  43.162375
   2280   0.000000  75.059032
    402   0.000000 146.613807
    478   0.000000 119.855220
   1735   0.000000 127.678452
    211   0.000000 105.420876
   1943   0.000000 115.445849
    263   0.000000 102.511109
   1745   0.000000  76.419787
   1630   0.000000 166.120845
    652   0.000000 154.438095
   1355   0.000000  63.619801
    737   0.000000 113.439360
   1072   0.000000 159.258233
   1658   0.000000 111.030170
   2721   0.000000  73.665828
    857   0.000000 160.128479
   1055   0.000000  45.747459
   2563   0.000000  75.331320
   1426   0.000000  60.512766
    589   0.000000 103.555783
    524   0.000000  54.879060
    892   0.000000 156.596889
     46   0.000000  51.520820
    115   0.000000 151.517832
    770   0.000000 148.020891
     32   0.000000 106.248437
   2140   0.000000 150.388234
   2064   0.000000 176.282222
    271   0.000000  48.767277
    797   0.000000  53.353708
    156   0.000000 141.268578
   1329   0.000000  96.774519
    148   0.000000 115.768268
   1543   0.000000  54.585766
   2293   0.000000  80.771174
   2555   0.000000  65.526194
    375   0.000000  49.986817
    409   0.000000 156.506858
   1884   0.000000 168.753861
   1642   0.000000 150.000468
    715   0.000000  91.550079
   2680   0.000000  72.174116
   1683   0.000000  63.486485
   2089   0.000000 132.953783
   1447   0.000000  51.181132
   2295   0.000000  53.728621
   1614   0.000000 165.188175
   1514   0.000000 117.836622
    748   0.000000 121.285889
   1159   0.000000  53.760251
   1490   0.000000 109.123061
   2266   0.000000 121.283268
    509   0.000000 104.144222
   1772   0.000000  61.875606
   1209   0.000000 156.993219
    694   0.000000 101.148340
    488   0.000000  44.759619
    755   0.000000  51.319500
   2664   0.000000 129.045555
   2805   0.000000  58.048730
    932   0.000000 154.451215
    635   0.000000 120.858439
    331   0.000000  53.632647
   2208   0.000000 124.446756
   2534   0.000000  73.997058
   1659   0.000000 175.812103
   1395   0.000000 170.878346
   2079   0.000000 179.829952
   2828   0.000000  64.618059
   2387   0.000000  63.620012
   1404   0.000000  63.427587
     25   0.000000 162.863540
    133   0.000000  55.086570
    557   0.000000  52.315955
   1000   0.000000  61.764991
   1938   0.000000 121.660747
   1188   0.000000  64.541837
   1617   0.000000 130.778748
   1026   0.000000 127.129184
   1132   0.000000  57.341610
   1472   0.000000 119.693867
   1667   0.000000 177.797696
   1984   0.000000 115.560071
   1059   0.000000 157.252639
   1551   0.000000 166.756629
   1577   0.000000  50.925116
   2625   0.000000  82.576533
   2692   0.000000  68.960991
   1516   0.000000 115.588767
    190   0.000000 101.955296
   2727   0.000000  70.724606
    228   0.000000  58.625314
   1267   0.000000 149.920703
   1489   0.000000 164.915861
   2067   0.000000 121.063621
   2098   0.000000  60.366068
   2808   0.000000  65.201776
   2300   0.000000 171.283431
   2698   0.000000 136.382262
   1264   0.000000 119.745121
     61   0.000000 158.748466
    491   0.000000 103.151468
   2739   0.000000 149.315354
   2245   0.000000  61.418130
   2159   0.000000 149.251693
   2660   0.000000  91.573546
   2626   0.000000 142.714404
    658   0.000000  49.334580
     53   0.000000  48.615390
    401   0.000000 106.783700
    353   0.000000 100.255293
   2061   0.000000  60.135742
    180   0.000000  97.512550
    867   0.000000 161.428951
   1028   0.000000 179.562279
   2301   0.000000  69.305262
    792   0.000000 153.372213
    273   0.000000 105.917852
   2562   0.000000 139.664519
    523   0.000000 113.923586
   2530   0.000000  79.902667
   1415   0.000000 116.036661
   1547   0.000000 116.549896
    555   0.000000 102.148285
    929   0.000000 159.191115
   2734   0.000000  56.159741
   1520   0.000000  62.881660
   1529   0.000000  56.341114
    910   0.000000 178.296071
   1583   0.000000 115.558194
    236   0.000000  88.045116
   2414   0.000000 132.356375
   1687   0.000000  55.167108
   2542   0.000000 156.402488
   2753   0.000000 141.480581
    713   0.000000  59.103487
   1044   0.000000 134.940946
   1855   0.000000  65.259498
    782   0.000000 101.023299
    780   0.000000  51.162293
   1685   0.000000 172.750380
   1295   0.000000  57.501080
    288   0.000000 166.144022
   2274   0.000000 151.621078
   2800   0.000000 167.896916
   1495   0.000000 168.490048
   2567   0.000000 144.362334
     80   0.000000 170.974594
   2226   0.000000 111.956599
   1475   0.000000  54.472903
    767   0.000000 166.073623
    242   0.000000 107.009157
    742   0.000000  66.555740
    927   0.000000 149.145376
   1086   0.000000 142.257989
   1587   0.000000 179.603414
    443   0.000000  98.278845
    366   0.000000 152.857792
   2044   0.000000 143.119139
   1449   0.000000 124.525539
    666   0.000000  89.521353
   2342   0.000000  58.643431
   1824   0.000000  61.540050
   2021   0.000000 106.753766
    365   0.000000  48.971973
   1891   0.000000 132.139491
   2599   0.000000 153.626568
    317   0.000000  43.375462
   2644   0.000000  82.228461
   1484   0.000000 118.231603
   1098   0.000000 127.455979
   1799   0.000000  55.268886
   2789   0.000000  76.913436
   1820   0.000000 169.504455
    647   0.000000  52.700329
   1089   0.000000 132.352951
   1756   0.000000  66.101376
    913   0.000000 152.679179
     76   0.000000  50.914960
   1141   0.000000 110.144589
   1186   0.000000  60.553913
    141   0.000000 130.225646
    274   0.000000  49.260939
   2615   0.000000  76.210337
    993   0.000000 114.629056
    520   0.000000 111.899979
   1834   0.000000 130.596364
   1968   0.000000 109.356864
    721   0.000000 155.534369
    381   0.000000 101.538030
   1556   0.000000 108.414374
    469   0.000000  60.147647
   2521   0.000000 156.333734
   2756   0.000000  65.108840
   1643   0.000000 159.511891
   1194   0.000000 106.496394
      4   0.000000  49.775665
    151   0.000000 163.906444
   2668   0.000000  73.956022
    139   0.000000  53.800486
   1632   0.000000 170.830775
   1297   0.000000  50.335513
   1300   0.000000  60.739427
    264   0.000000 104.994870
    224   0.000000 105.181122
    225   0.000000 152.757209
   1803   0.000000 126.983128
   1497   0.000000  55.792800
   1268   0.000000 115.095597
   2649   0.000000  75.705286
   2730   0.000000  65.756708
   1136   0.000000  55.901403
   1935   0.000000  59.811119
   2062   0.000000 114.311455
    137   0.000000  73.712390
    786   0.000000  54.511578
   1353   0.000000 137.085970
    784   0.000000 153.302830
    869   0.000000  96.321774
    250   0.000000 153.575466
   1955   0.000000  65.348951
    908   0.000000  44.370302
   1099   0.000000 179.320539
    655   0.000000 159.328387
   1886   0.000000  82.380376
   2192   0.000000 120.307663
   2743   0.000000  73.943487
   1037   0.000000 105.533489
   1806   0.000000 129.111843
   1343   0.000000 104.154257
    723   0.000000 111.569214
   2498   0.000000 116.048604
   1325   0.000000 150.315196
    321   0.000000 109.363233
   1179   0.000000 162.913846
   2532   0.000000  68.302963
    492   0.000000 148.700015
   1147   0.000000 122.774491
   1890   0.000000  54.663312
   1627   0.000000 176.759538
    741   0.000000  58.709211
   1452   0.000000  59.696741
    592   0.000000 112.446698
   2027   0.000000  62.734041
   1187   0.000000 167.050307
   1282   0.000000  48.592821
   2127   0.000000 107.802244
    771   0.000000  41.472427
   2476   0.000000  75.425234
   2467   0.000000  81.397650
   2747   0.000000  74.779492
   1764   0.000000  66.567694
   2784   0.000000 131.677173
   1148   0.000000 119.672615
   2781   0.000000  76.001902
   2323   0.000000  45.499154
    653   0.000000  53.259297
    977   0.000000 122.667491
   1304   0.000000  61.287307
   1077   0.000000 113.506256
   1481   0.000000 170.779552
    862   0.000000  53.838415
   2604   0.000000  62.712759
     48   0.000000 151.581330
   1002   0.000000 124.495533
   1224   0.000000  59.937320
   2331   0.000000 119.010222
   1726   0.000000 143.855603
   2715   0.000000  73.924485
    643   0.000000 178.436866
    960   0.000000 172.161310
   2303   0.000000  74.356955
   1008   0.000000 176.681387
   2447   0.000000  72.049015
    265   0.000000  51.656227
   1953   0.000000  55.282765
   2579   0.000000 140.268664
    286   0.000000 107.348432
   2837   0.000000  79.915085
    203   0.000000 110.270738
   1808   0.000000  57.288360
    856   0.000000 153.646704
    824   0.000000  66.632215
     75   0.000000  54.153145
    519   0.000000  56.902666
   1225   0.000000  60.037482
   1971   0.000000  72.181750
   2304   0.000000 166.231738
   1001   0.000000 114.916396
   1811   0.000000 116.803406
   1370   0.000000  47.917898
   1784   0.000000 152.959725
   1654   0.000000 178.735579
   2227   0.000000  51.384711
   1107   0.000000 139.209159
   1152   0.000000  57.235962
   2481   0.000000 139.919426
    559   0.000000 105.329870
   1437   0.000000 111.533185
     21   0.000000  39.716903
   1379   0.000000  65.618594
   1349   0.000000 135.765122
   1966   0.000000  56.010515
   1458   0.000000  54.210225
   1448   0.000000 118.229653
   1157   0.000000  68.437841
    613   0.000000 136.381758
   1681   0.000000  62.396493
   2247   0.000000 120.494297
    969   0.000000 116.473645
    595   0.000000  50.108560
    971   0.000000  59.364653
    938   0.000000 102.807070
   1246   0.000000 122.005490
   2024   0.000000 128.746368
   2512   0.000000  84.233743
    630   0.000000  47.677909
   1200   0.000000 150.665959
   1853   0.000000  84.228806
    416   0.000000  61.155092
     24   0.000000 105.543620
    925   0.000000 155.686796
    679   0.000000 114.040310
   2153   0.000000  90.796424
   2736   0.000000 137.678786
   1401   0.000000  58.369769
    461   0.000000 148.180708
   1801   0.000000 174.778958
   2587   0.000000  70.049100
    327   0.000000  52.576295
    623   0.000000 104.742135
    420   0.000000  61.944129
   1093   0.000000  64.402045
   2641   0.000000  79.487864
    645   0.000000 128.862805
    506   0.000000  48.322053
   2577   0.000000  63.305015
   2191   0.000000  69.056007
    451   0.000000 167.293856
     98   0.000000  45.405262
    254   0.000000  57.320571
    607   0.000000  54.070145
    596   0.000000 143.997519
    708   0.000000 153.697950
   1885   0.000000  49.759115
   2238   0.000000 160.505986
    633   0.000000 159.658810
    764   0.000000  97.448494
   1219   0.000000  51.542595
   1810   0.000000  61.890701
   2124   0.000000  72.614915
   1655   0.000000 108.106694
    931   0.000000  51.663509
   1162   0.000000  56.163366
   1338   0.000000 174.982631
    783   0.000000  99.064949
    258   0.000000 156.226638
   1867   0.000000  68.079587
    714   0.000000 150.653566
   2819   0.000000  77.216082
   2578   0.000000 139.870193
    132   0.000000 177.400553
    802   0.000000 133.291091
   1761   0.000000 111.039762
   2694   0.000000  74.564488
   1420   0.000000  65.763298
    320   0.000000 162.026593
   2797   0.000000 106.820418
   1063   0.000000  60.997170
   1156   0.000000 108.052492
   1742   0.000000 138.444751
   1061   0.000000 139.744597
   1372   0.000000 101.641480
   2364   0.000000  79.865375
   2724   0.000000  72.441423
    886   0.000000  52.212996
   2451   0.000000 152.365416
   1645   0.000000  52.572742
   1755   0.000000 124.876585
    854   0.000000 110.213826
   2621   0.000000 137.600631
    547   0.000000  48.336173
    918   0.000000  51.169887
    773   0.000000 152.263131
    126   0.000000 102.627567
   1222   0.000000 176.500063
   2071   0.000000  62.654157
   1844   0.000000 129.492647
    659   0.000000 111.655060
   1657   0.000000  55.801577
   1536   0.000000 179.674931
   2181   0.000000 173.926920
    878   0.000000 152.604485
   1656   0.000000 126.400726
   2814   0.000000 137.354290
    987   0.000000 112.803761
    562   0.000000  50.421959
   1812   0.000000 124.509502
    448   0.000000 117.999010
    199   0.000000  94.129606
    572   0.000000 145.633139
   2008   0.000000 119.655564
    229   0.000000 150.890642
   1166   0.000000  54.292241
   2544   0.000000 148.025354
   2215   0.000000  56.103267
    525   0.000000 144.015593
   2047   0.000000 141.390040
    627   0.000000  50.577327
   2141   0.000000 144.387576
   1396   0.000000 121.749318
   2554   0.000000 135.347431
     93   0.000000  59.493781
    531   0.000000  89.136534
   2733   0.000000 123.187566
   1293   0.000000 118.240507
   2607   0.000000 150.011974
   1463   0.000000 118.906078
   1686   0.000000 109.702660
   2492   0.000000 143.234285
   2232   0.000000 121.513661
    881   0.000000 155.472877
   1477   0.000000  53.199329
   1378   0.000000 129.288227
   1774   0.000000 168.719320
   1989   0.000000 135.918339
   1109   0.000000  50.618777
   2546   0.000000  61.038575
    472   0.000000 156.836001
   2638   0.000000  88.616454
    787   0.000000 105.400173
   2573   0.000000 131.254828
    119   0.000000 154.168603
   2568   0.000000  69.609192
   1987   0.000000  65.768151
   1775   0.000000 115.219276
   2525   0.000000 150.174939
   1712   0.000000 154.432213
   1707   0.000000 156.322608
   1897   0.000000  70.203987
   2622   0.000000 129.202116
    976   0.000000  55.708261
    560   0.000000 155.113802
   1720   0.000000 137.398767
    278   0.000000 164.121046
   2320   0.000000 103.218507
   1032   0.000000 142.368476
   1341   0.000000 128.875536
   1917   0.000000  58.025673
     72   0.000000 161.411907
    567   0.000000  94.534616
   1737   0.000000 107.283926
   2418   0.000000  72.914287
    681   0.000000  52.490166
   1827   0.000000 122.127818
   2249   0.000000 120.455553
   1229   0.000000 179.251947
   1507   0.000000  57.784758
   1948   0.000000  61.664973
    718   0.000000  55.145873
    576   0.000000  63.921445
   1065   0.000000  63.002764
   1669   0.000000 125.788071
    297   0.000000  48.500599
   2605   0.000000  78.663642
   1487   0.000000  58.820966
   2416   0.000000  80.934903
   2835   0.000000 144.120940
    311   0.000000  48.745654
    706   0.000000  60.576325
   2137   0.000000  69.457836
   2507   0.000000  55.547757
    845   0.000000  59.059245
   1635   0.000000 105.643401
    852   0.000000  48.014765
   1180   0.000000  62.735906
    471   0.000000 113.716909
     42   0.000000  87.015686
   1941   0.000000 126.221549
   1469   0.000000  61.727699
   1899   0.000000  75.941394
   1736   0.000000 125.037622
    813   0.000000 159.882381
   2519   0.000000  78.398239
    549   0.000000  46.360365
   2315   0.000000 137.849188
   1020   0.000000 111.231101
     88   0.000000 115.111427
    680   0.000000 133.478250
   1649   0.000000  52.233471
   1523   0.000000 115.746988
    194   0.000000  52.923048
    926   0.000000  49.861989
   1335   0.000000  47.569133
     62   0.000000 156.897850
   1146   0.000000  65.538529
   2463   0.000000 153.092622
   1563   0.000000  66.681556
    997   0.000000 161.794600
   1866   0.000000 153.439067
    301   0.000000 169.183401
    413   0.000000  59.588153
    615   0.000000  56.930303
   2305   0.000000 136.771885
    335   0.000000 103.925034
   2787   0.000000 152.320925
   1729   0.000000  64.037269
   1856   0.000000 147.803337
   1231   0.000000 116.562743
   2464   0.000000 148.776226
   1331   0.000000  51.688330
    948   0.000000  51.720134
    280   0.000000 139.222041
    527   0.000000 134.993215
   1082   0.000000  53.730868
   2761   0.000000  69.060084
   1647   0.000000 101.268973
   2836   0.000000  70.550384
    801   0.000000 115.390936
    140   0.000000 175.973868
   2287   0.000000  53.550212
    896   0.000000  49.055251
   1624   0.000000  60.842547
    417   0.000000 177.312626
    539   0.000000  96.015249
   2407   0.000000 127.673780
   1232   0.000000 123.462456
   1965   0.000000 125.996251
   1633   0.000000  65.187373
    138   0.000000  56.513256
   2259   0.000000 179.096084
   2138   0.000000  69.458648
    345   0.000000  52.393904
   1939   0.000000  64.224389
   1903   0.000000 142.541583
    895   0.000000  48.401365
   2316   0.000000 123.094659
    395   0.000000  50.995673
    981   0.000000 120.130038
   2656   0.000000 135.671023
    940   0.000000  55.299868
    654   0.000000 145.751063
    410   0.000000  47.466197
   1361   0.000000  96.237429
   2048   0.000000  70.763271
   1459   0.000000 175.777720
   1762   0.000000 119.487934
   1042   0.000000  56.435247
   2685   0.000000  66.696273
   2443   0.000000  64.033177
   1075   0.000000  61.380201
    122   0.000000  97.468935
    164   0.000000 104.858719
   1226   0.000000  57.285597
   1679   0.000000 105.519031
   2613   0.000000  65.266222
    702   0.000000  45.341337
   2365   0.000000 132.455429
   2802   0.000000  63.992081
   1947   0.000000 179.670239
   1970   0.000000 148.583963
   1140   0.000000 178.640142
    794   0.000000  62.037227
   1217   0.000000 149.692332
   1043   0.000000  49.959956
   2406   0.000000  64.628174
    690   0.000000  54.071091
    347   0.000000 159.559394
   1313   0.000000 104.321859
   2103   0.000000  65.964282
   2375   0.000000 135.312340
   2631   0.000000  67.273766
   2276   0.000000  70.570647
   2473   0.000000 148.092298
     49   0.000000 143.650753
    521   0.000000 158.963487
    999   0.000000 174.457596
   1962   0.000000  62.875713
   1974   0.000000 149.849018
   2050   0.000000 169.796356
   1696   0.000000 117.583272
   1934   0.000000  61.849628
   1952   0.000000 118.332601
   2840   0.000000 149.117132
     30   0.000000  54.025197
   2115   0.000000  82.579635
     90   0.000000  49.466138
   2229   0.000000 165.752880
   1549   0.000000  84.426412
   2684   0.000000 136.199346
   2553   0.000000 141.525566
   1739   0.000000 141.364335
    760   0.000000 110.563612
   2399   0.000000  71.860050
    808   0.000000 111.317973
   1785   0.000000  53.476059
   2731   0.000000 121.916449
    465   0.000000  51.872728
   2449   0.000000  83.638297
   2766   0.000000 117.354921
   1012   0.000000  57.234658
   1836   0.000000 111.793338
    295   0.000000 135.008145
   1525   0.000000  64.225827
   2557   0.000000  75.999372
   2710   0.000000  69.868307
   2764   0.000000 172.070458
   2829   0.000000 150.053265
    526   0.000000  56.204139
   1787   0.000000 160.883435
   1137   0.000000 119.789012
   2240   0.000000  60.056548
    299   0.000000 147.854654
   1579   0.000000 117.152250
   1546   0.000000 125.430273
   1698   0.000000  99.637655
    912   0.000000 156.150934
   1841   0.000000 170.321617
    746   0.000000 120.751853
    484   0.000000  89.447090
   2541   0.000000 131.273006
   2490   0.000000  71.902044
     23   0.000000  54.123405
    513   0.000000  89.513379
   1691   0.000000 118.653593
   2333   0.000000 108.528114
   2256   0.000000 119.961898
   2659   0.000000  67.186874
    324   0.000000  55.049136
    181   0.000000 144.862278
    811   0.000000  59.926745
   1035   0.000000  49.098242
   1204   0.000000  52.340822
   1312   0.000000  55.597587
    167   0.000000  54.378302
   1385   0.000000 129.722159
    728   0.000000 140.139503
   1575   0.000000 117.365127
   1600   0.000000 178.842849
   1689   0.000000 123.763135
   2054   0.000000  65.205857
   2197   0.000000  58.611501
   1976   0.000000 139.234287
   2691   0.000000 154.656747
   1251   0.000000  59.853041
   2041   0.000000 140.772171
    789   0.000000 152.185592
    671   0.000000  58.627029
   1193   0.000000 115.048731
   1501   0.000000 158.279569
    629   0.000000 152.663282
   1998   0.000000  62.018355
   1888   0.000000 118.994746
   1565   0.000000 128.524354
   1342   0.000000  54.902010
   2130   0.000000 179.582841
   2371   0.000000  61.362039
   2184   0.000000 120.909629
   2019   0.000000 128.150873
    827   0.000000 178.700681
   1639   0.000000  97.766997
   2687   0.000000 145.956818
   2513   0.000000 136.485626
    978   0.000000 122.739864
   1883   0.000000 110.468779
    946   0.000000 103.301011
    843   0.000000 109.658125
   1412   0.000000 122.524303
   1930   0.000000  61.637466
   2475   0.000000 144.655340
   2582   0.000000 146.530748
   2322   0.000000  53.556999
    622   0.000000  54.916674
   1759   0.000000  62.904610
   2801   0.000000 179.649656
    392   0.000000 159.606560
   2196   0.000000 168.252123
   2251   0.000000  61.379387
    244   0.000000 160.725514
    805   0.000000  56.436751
   1060   0.000000  73.081481
   2267   0.000000  58.018113
   2589   0.000000 145.034561
   2714   0.000000 143.494481
   1876   0.000000 142.351039
    683   0.000000 166.530476
    909   0.000000  45.836102
   1215   0.000000 158.765073
   2493   0.000000 145.487111
   2073   0.000000 175.778652
   2268   0.000000 177.130341
   2413   0.000000  63.045606
   2780   0.000000 108.930288
   1254   0.000000 173.244983
    740   0.000000 117.867683
   1223   0.000000 120.303589
   2686   0.000000 144.540109
   2758   0.000000  60.380408
    290   0.000000  87.515451
    128   0.000000 110.444368
   2825   0.000000  60.719287
   1848   0.000000 111.034821
   2112   0.000000 146.263510
   2448   0.000000  68.727119
   1290   0.000000  58.926596
   1816   0.000000  54.912705
   1988   0.000000 167.469574
    685   0.000000 156.119371
   1662   0.000000  73.157727
    788   0.000000 105.469557
    118   0.000000 109.210714
   2237   0.000000  63.917717
   2539   0.000000  80.701640
     22   0.000000 108.838343
   2033   0.000000 167.540621
   2768   0.000000  58.433809
    889   0.000000  99.489345
    803   0.000000 138.488027
   2097   0.000000  55.783597
   1872   0.000000  62.366660
   1333   0.000000  48.557529
   2175   0.000000 178.349418
    682   0.000000 112.481440
   1502   0.000000  87.959021
   1557   0.000000 140.063427
   1928   0.000000 110.338286
   2260   0.000000  62.752516
    468   0.000000  97.387613
   2100   0.000000 131.825008
    303   0.000000 104.309052
   1056   0.000000 122.596194
    914   0.000000  97.991696
   1542   0.000000 172.605596
    418   0.000000 116.883814
   2782   0.000000 151.409391
   2595   0.000000 143.233989
   1389   0.000000  74.753095
    150   0.000000  58.463494
   2460   0.000000 136.096033
    393   0.000000  53.779632
   1386   0.000000 169.476067
   2209   0.000000 115.127959
   2252   0.000000 113.322353
   1327   0.000000 164.598616
   2222   0.000000 129.987613
   1394   0.000000  63.379549
   1285   0.000000  42.267273
    231   0.000000 109.808328
   2169   0.000000 154.197098
   2424   0.000000  72.385888
    626   0.000000 109.081482
   2437   0.000000 147.091574
   2217   0.000000 119.150979
   2705   0.000000  83.864604
   1828   0.000000 106.616538
   1910   0.000000 118.774685
   2109   0.000000 131.156854
   2230   0.000000 105.180992
   2420   0.000000  60.867509
   2352   0.000000 111.592725
     44   0.000000  56.545967
   2362   0.000000 173.254132
   1034   0.000000 145.350206
   2168   0.000000  83.806307
   2575   0.000000  67.949813
   2094   0.000000 108.123030
    703   0.000000  51.520193
   2148   0.000000  75.271818
   2382   0.000000  63.457385
    888   0.000000 148.544595
   2236   0.000000 167.280900
    642   0.000000 172.041486
    212   0.000000 104.522081
    580   0.000000 120.895247
    900   0.000000 157.250775
   2297   0.000000 134.499796
   1411   0.000000 105.188999
   1064   0.000000 129.665880
    378   0.000000  98.980227
   2585   0.000000  73.200588
    373   0.000000 157.422076
   2746   0.000000  78.742153
   1620   0.000000  57.568407
   1508   0.000000  67.951461
   2093   0.000000 168.450179
   2367   0.000000 155.489592
   1671   0.000000 179.790012
   1921   0.000000  55.286626
   2171   0.000000  70.390791
    907   0.000000  88.089667
    200   0.000000  43.686461
    838   0.000000  57.439840
    693   0.000000 152.668533
   1473   0.000000 117.580223
   2351   0.000000 129.423406
   2380   0.000000 143.253804
    246   0.000000 158.192172
   1862   0.000000  65.361008
    136   0.000000 127.512876
     64   0.000000  59.900084
    995   0.000000  83.576344
   1163   0.000000 169.662219
   2310   0.000000 130.186628
    657   0.000000  51.844218
   1933   0.000000 170.419813
   1172   0.000000 126.592919
    255   0.000000 108.175453
    458   0.000000 168.426420
    481   0.000000  46.634655
   1406   0.000000 175.133377
   1817   0.000000 173.599798
   1879   0.000000 135.440672
   1123   0.000000  88.590382
    223   0.000000 102.061669
   1804   0.000000  67.221142
   1518   0.000000 174.209248
   2113   0.000000 160.121159
   1922   0.000000 165.624913
   2043   0.000000  72.492369
   2058   0.000000 127.963663
   2454   0.000000 144.001278
    883   0.000000  55.982528
   2794   0.000000  60.582208
    259   0.000000 105.371756
    170   0.000000  51.789987
    179   0.000000 163.886637
   1650   0.000000 110.815660
    318   0.000000 100.322321
    691   0.000000  54.616732
   2798   0.000000  63.757701
    732   0.000000 105.719627
   2823   0.000000  62.544288
   1167   0.000000 124.303055
   1616   0.000000  60.332836
     67   0.000000 138.688009
    121   0.000000  52.511046
   2261   0.000000 120.117143
   2421   0.000000  73.794435
    307   0.000000  59.029897
   2348   0.000000 118.614308
   2457   0.000000  79.902689
   2434   0.000000  72.326801
   2594   0.000000  70.384795
   2543   0.000000 150.936070
    944   0.000000 147.174631
   2152   0.000000 163.485479
   2609   0.000000 152.572856
   2269   0.000000 122.373163
   2129   0.000000  60.527735
     29   0.000000 145.618037
   1860   0.000000 133.440595
   1560   0.000000 111.119614
   2779   0.000000  59.259280
    466   0.000000  44.891121
   1068   0.000000  66.663116
    791   0.000000  46.716035
   1471   0.000000 127.210421
   1641   0.000000  50.148370
   2564   0.000000 138.640206
   2770   0.000000 178.014389
    480   0.000000 136.081745
    399   0.000000 154.249897
   2440   0.000000 140.581625
   2335   0.000000  59.615343
   1972   0.000000 141.924452
   2187   0.000000 174.396985
   2307   0.000000  62.414931
    319   0.000000 142.924271
    859   0.000000 156.438643
    875   0.000000 105.146240
   1526   0.000000  59.405874
   1637   0.000000  50.729618
    452   0.000000 147.815023
   1571   0.000000 129.866959
    828   0.000000 121.260841
   1769   0.000000 125.448590
   2337   0.000000 168.143457
   1227   0.000000 120.481946
   1519   0.000000  70.043764
   2394   0.000000  86.356485
   2085   0.000000  61.386153
   2545   0.000000  75.700848
   1534   0.000000 125.089165
   2327   0.000000 170.635733
    698   0.000000  46.531609
   2688   0.000000  69.503073
    538   0.000000  58.097947
    872   0.000000  51.687039
   1857   0.000000 149.488304
   1092   0.000000 113.499221
   2383   0.000000 150.111607
   2309   0.000000  64.811322
   2291   0.000000  61.070781
   1695   0.000000  63.047720
   2824   0.000000  80.179828
   1485   0.000000 166.493197
   2223   0.000000 169.440499
    182   0.000000  46.261465
    196   0.000000 159.302986
   1949   0.000000 111.950393
    779   0.000000 155.534877
    173   0.000000 149.302537
   1517   0.000000  58.096656
    279   0.000000 153.870959
   2338   0.000000 116.742817
   2547   0.000000 133.363082
   2282   0.000000 153.263433
   1748   0.000000  69.382464
   1676   0.000000 165.075922
    905   0.000000  84.947132
    548   0.000000  91.455049
    967   0.000000  60.824461
    235   0.000000 113.762712
   1942   0.000000  60.163085
   2804   0.000000 116.358263
    528   0.000000  45.856682
   2769   0.000000 124.218205
    963   0.000000  57.918629
   1011   0.000000 120.588071
   1129   0.000000 171.155012
   1790   0.000000 170.430968
   1374   0.000000 109.118007
   1071   0.000000 112.999415
   1274   0.000000 116.328920
    603   0.000000  48.629343
   1373   0.000000 160.367176
   1770   0.000000 121.384322
   2110   0.000000  68.721986
   2816   0.000000 152.793077
    577   0.000000 111.924873
   1792   0.000000 115.162082
   1073   0.000000  46.258819
   1690   0.000000 173.189145
   2446   0.000000 140.888616
   2576   0.000000  76.565178
    919   0.000000  58.159239
   1280   0.000000  52.125930
   1230   0.000000  63.196349
   1771   0.000000 174.884366
   1861   0.000000  73.120338
   2341   0.000000 177.257738
    556   0.000000 156.969261
   2528   0.000000  72.239444
   2482   0.000000  77.416620
   2760   0.000000 103.010375
     66   0.000000 116.243885
   2496   0.000000  60.500847
   2011   0.000000  57.332739
    304   0.000000 107.775551
   2294   0.000000 159.902350
    343   0.000000  95.125504
   1779   0.000000 172.675804
   1895   0.000000  70.636702
    600   0.000000 117.450067
   2570   0.000000 147.094216
   2676   0.000000  61.303510
   2792   0.000000  67.763176
   1185   0.000000 129.789612
   2218   0.000000 177.352863
     78   0.000000  92.795232
   2173   0.000000 133.397487
   2748   0.000000 139.777265
   1391   0.000000  54.802677
   1767   0.000000 124.730436
    590   0.000000  53.632712
    116   0.000000  48.890265
     97   0.000000  52.167388
    195   0.000000 106.567408
   1451   0.000000 178.735764
   1715   0.000000  56.624853
    155   0.000000  48.138176
    648   0.000000  53.762777
   1558   0.000000 108.816959
   2356   0.000000 179.172564
   2785   0.000000  75.407489
    632   0.000000 146.060562
   2742   0.000000  68.586639
   1744   0.000000 149.119228
   1195   0.000000 125.095750
   1344   0.000000  68.941210
   2759   0.000000 165.450669
   2207   0.000000  58.200381
    425   0.000000 178.827943
    268   0.000000 138.728379
   2246   0.000000 119.543806
   1540   0.000000  60.182711
   1677   0.000000 167.915525
   1521   0.000000 109.983421
   2326   0.000000 137.963626
   1467   0.000000  65.482722
    220   0.000000 154.489924
   1130   0.000000 111.544412
   2262   0.000000  59.620648
    730   0.000000  95.404772
   2119   0.000000 162.314147
    744   0.000000 128.692958
    463   0.000000  90.406006
   2700   0.000000  72.006503
   2135   0.000000  70.695282
   1578   0.000000 127.289556
   2340   0.000000  66.620150
   2580   0.000000  76.481647
   2744   0.000000 142.530126
    388   0.000000 106.708220
    312   0.000000  51.576667
    847   0.000000  92.797511
   2556   0.000000  83.127003
   1498   0.000000  57.968610
   2693   0.000000 142.823215
   1445   0.000000 174.277807
   1926   0.000000 118.378036
    933   0.000000 106.196294
   2616   0.000000  79.123458
   2508   0.000000  58.550259
   1296   0.000000  57.967143
   1434   0.000000 168.734853
    147   0.000000  50.066986
    829   0.000000  60.206535
    756   0.000000 160.659610
   2699   0.000000  73.924686
   1586   0.000000 170.768444
   1829   0.000000 126.699378
    734   0.000000  88.334862
   2771   0.000000  59.993065
   2811   0.000000 147.220593
   2142   0.000000 140.153118
   2598   0.000000  72.849194
    333   0.000000 146.078562
   1258   0.000000 113.391942
   2006   0.000000 165.992292
   2430   0.000000 137.223342
   2495   0.000000  66.304639
    493   0.000000  50.300612
   2560   0.000000  75.973147
   2445   0.000000  66.745968
   2051   0.000000  62.239981
    558   0.000000  57.397600
     15   0.000000  51.705757
   1275   0.000000 102.886998
   1362   0.000000 122.276695
   1320   0.000000 151.098302
    990   0.000000 115.467990
   1496   0.000000 103.550931
   1611   0.000000 122.861349
    551   0.000000  94.696538
   2206   0.000000 116.402265
   2275   0.000000  73.416677
   2796   0.000000  61.076498
   2000   0.000000  70.482709
   2645   0.000000 159.878782
    323   0.000000  90.347976
   1932   0.000000 172.246159
    839   0.000000 143.267865
   1705   0.000000  47.733011
   2408   0.000000  73.092895
   1927   0.000000 131.283678
   1797   0.000000 178.759820
   2689   0.000000  80.092260
   2536   0.000000  68.489845
    614   0.000000 164.357847
   1588   0.000000  59.091127
   2712   0.000000 158.236369
    822   0.000000 140.190874
   2612   0.000000 136.078812
   1112   0.000000 105.649377
    777   0.000000 106.713569
   2370   0.000000  75.624217
    775   0.000000 101.100839
    998   0.000000 142.637074
   2107   0.000000  59.685894
   1161   0.000000  68.139689
    334   0.000000 150.759864
   2081   0.000000 118.783895
    340   0.000000 105.315102
   1573   0.000000  54.412618
    541   0.000000 172.529702
    594   0.000000  49.923071
    753   0.000000 148.767993
    369   0.000000 158.170234
   1749   0.000000  66.641491
   1847   0.000000  58.323502
   1945   0.000000  61.997160
   2565   0.000000  69.031014
   2813   0.000000  77.367960
     99   0.000000 143.255047
   2540   0.000000  70.234430
   2402   0.000000  60.433607
    649   0.000000 102.593877
    637   0.000000 164.041533
    793   0.000000 159.911752
   2765   0.000000 118.426874
   2151   0.000000  72.689055
   1365   0.000000 154.237775
   1348   0.000000  48.012424
   2834   0.000000 145.328676
   2359   0.000000  64.948635
    403   0.000000  94.882254
   1568   0.000000 124.795308
   2624   0.000000  62.136542
    578   0.000000  59.103232
    377   0.000000  50.766056
   1105   0.000000 167.010847
    372   0.000000 154.363752
   2176   0.000000 116.456237
   1466   0.000000  57.178379
   1138   0.000000 127.226369
   2502   0.000000 117.004346
   1535   0.000000  62.305239
   1982   0.000000 107.184239
   1016   0.000000  63.394362
   2597   0.000000 143.419318
   1208   0.000000  47.168731
    898   0.000000 108.195524
    213   0.000000  49.967842
   1253   0.000000 116.324153
   1795   0.000000 123.002265
    505   0.000000  98.399403
   1512   0.000000 126.574611
   2583   0.000000 143.249688
   1468   0.000000 178.578434
    720   0.000000 160.865500
   2489   0.000000 142.610845
    656   0.000000 158.823587
    768   0.000000  45.905486
   2358   0.000000  54.035234
   1281   0.000000 170.623097
   1018   0.000000 115.827457
   1969   0.000000  77.667269
   2807   0.000000 147.577631
    776   0.000000 153.429604
    215   0.000000 155.148964
      8   0.000000 157.268318
   2559   0.000000 151.304467
    950   0.000000  95.696768
   1743   0.000000  62.024965
   2757   0.000000 127.549134
   2581   0.000000  71.218484
   1094   0.000000  65.172711
    108   0.000000 151.418789
   1409   0.000000 176.424943
   2308   0.000000  56.996377
   1902   0.000000 140.840689
   2842   0.000000 152.125158
      1   0.000000  98.612865
   2815   0.000000  69.852633
    175   0.000000  94.381861
   1201   0.000000 154.345027
    232   0.000000  59.345539
   1151   0.000000  51.177061
   1033   0.000000 167.671567
   1807   0.000000 175.975452
   2403   0.000000  64.957388
   2488   0.000000  71.332241
    352   0.000000 146.714335
    496   0.000000 160.243600
   1357   0.000000  68.019707
   1975   0.000000 140.408280
   2273   0.000000 179.301381
     56   0.000000  50.681680
   1478   0.000000  70.988845
     28   0.000000  54.714938
   2643   0.000000  80.390918
   2086   0.000000 116.255180
   2166   0.000000  66.912488
    113   0.000000 111.013233
    781   0.000000  54.307264
   1570   0.000000 179.207925
   1339   0.000000  80.863112
    473   0.000000  59.707573
    315   0.000000 142.166486
   1277   0.000000  94.983700
   2099   0.000000  65.860726
    966   0.000000 112.435085
   2114   0.000000  66.547208
   2483   0.000000  62.502806
    285   0.000000 150.310377
    187   0.000000 144.663517
   2012   0.000000  51.161737
    836   0.000000 116.283841
    877   0.000000 151.755174
   2165   0.000000 137.303279
   1181   0.000000 112.355472
   2178   0.000000  57.940748
   2188   0.000000 118.681700
    510   0.000000 109.134322
   1084   0.000000  52.126054
    874   0.000000 154.785625
   1380   0.000000  64.103565
   1430   0.000000 120.048563
   2319   0.000000  57.719353
   2271   0.000000  60.496495
   1741   0.000000  68.928315
   1127   0.000000  61.618620
   1768   0.000000  69.896358
   1914   0.000000  55.767843
   2078   0.000000 175.582639
    423   0.000000 120.743245
   1416   0.000000  71.235944
   1977   0.000000  69.491585
   2596   0.000000 143.731487
    159   0.000000  45.624983
    475   0.000000  50.053699
   2037   0.000000 113.234174
   2754   0.000000  64.997773
   2640   0.000000 166.527489
    407   0.000000 104.775305
   1418   0.000000 124.224286
    581   0.000000  63.258436
    634   0.000000  61.762730
   1909   0.000000 173.477326
   2548   0.000000  72.324507
   1111   0.000000  59.196951
    494   0.000000 162.977932
    106   0.000000  97.567979
   2584   0.000000  69.050180
    163   0.000000  57.718348
   1522   0.000000 126.384878
   2016   0.000000  61.279078
   2634   0.000000 134.645946
   2738   0.000000 148.377727
   1653   0.000000  67.705409
    785   0.000000 101.227613
   1983   0.000000 117.677654
   1238   0.000000  61.695322
    162   0.000000  93.130403
     10   0.000000 153.209975
     74   0.000000 156.707822
    529   0.000000 168.802645
   2716   0.000000  62.325329
    446   0.000000 100.158374
   2833   0.000000 143.698036
    840   0.000000 157.672889
   2007   0.000000  57.497815
     19   0.000000 157.952824
   1916   0.000000 110.470485
   2025   0.000000 125.551327
    186   0.000000  50.533911
    104   0.000000 164.577565
   1080   0.000000  97.516698
   2590   0.000000  71.687869
   1046   0.000000  61.310171
    561   0.000000  54.231348
    651   0.000000  56.229710
    197   0.000000 150.253868
    727   0.000000  53.914987
   2572   0.000000 149.600770
   2279   0.000000 137.808275
    543   0.000000 154.113196
   2620   0.000000  75.464090
   1786   0.000000  61.399769
   2690   0.000000 137.084525
    778   0.000000  53.198182
   2772   0.000000  57.767406
   2183   0.000000  65.194345
     39   0.000000  39.369601
   1958   0.000000 168.654797
   2111   0.000000  64.609646
   1381   0.000000 124.905339
   1196   0.000000  54.607744
   1197   0.000000 128.407856
   1122   0.000000  46.095392
    891   0.000000 103.259881
   2302   0.000000 126.301638
   1532   0.000000 123.631701
   1062   0.000000 107.255989
    405   0.000000  47.416057
   2125   0.000000  62.745308
   1963   0.000000 179.342600
   2818   0.000000 157.395910
    479   0.000000 141.447973
   1083   0.000000 165.615957
    945   0.000000  95.454497
   1427   0.000000 177.747707
   1561   0.000000 163.502285
   2679   0.000000 151.434660
    497   0.000000  52.095084
    631   0.000000  54.280628
   1255   0.000000 123.930726
   2040   0.000000 148.601059
   2254   0.000000  59.076167
   1852   0.000000 134.696823
   1576   0.000000 168.290243
   2116   0.000000 133.331633
   1648   0.000000 147.915367
    499   0.000000 100.417137
    765   0.000000  50.572397
   1494   0.000000  54.728638
   2034   0.000000  62.817286
    339   0.000000 102.093401
   1199   0.000000 179.703494
   1604   0.000000  56.134545
    287   0.000000  61.834970
    490   0.000000  96.604931
   1116   0.000000  53.779994
   2023   0.000000 170.690948
   1315   0.000000 128.045786
    820   0.000000 104.714534
   2675   0.000000  58.087051
   2389   0.000000  75.805024
   1237   0.000000  73.768539
   1601   0.000000 119.575428
    982   0.000000  61.494210
   2248   0.000000  64.803963
    942   0.000000  54.224490
   2221   0.000000  69.045839
    459   0.000000 166.304407
   2601   0.000000  76.239139
   2212   0.000000  59.024692
    586   0.000000 175.846318
   2244   0.000000 178.126317
    495   0.000000  53.843610
   2015   0.000000 168.032844
   1773   0.000000  55.552232
   2574   0.000000 152.179995
   1023   0.000000 174.331749
    105   0.000000  97.849785
    361   0.000000 154.437463
   1906   0.000000 164.278110
   1189   0.000000 115.161657
    861   0.000000 107.297616
   1740   0.000000 142.215878
   2046   0.000000  70.626769
   2250   0.000000  58.582511
   2531   0.000000 148.392512
   2722   0.000000 150.822767
   1462   0.000000 121.567495
   1868   0.000000 138.481346
    588   0.000000  52.821641
   2330   0.000000  67.609582
   2653   0.000000  68.484149
    769   0.000000 152.453950
   2123   0.000000  54.511903
    336   0.000000  51.531130
   1805   0.000000 120.116649
   1493   0.000000 110.521438
    563   0.000000 160.135513
    174   0.000000 145.632946
   1510   0.000000 127.691427
   1025   0.000000 121.898654
    485   0.000000  54.009336
   2663   0.000000  86.334643
    308   0.000000 159.352218
   1590   0.000000 120.512287
   2163   0.000000 137.084989
   2809   0.000000  72.152514
    644   0.000000  75.100028
    582   0.000000 116.080077
   1713   0.000000 111.965494
    972   0.000000  60.765384
   1978   0.000000  69.742702
   1359   0.000000 164.257136
   1066   0.000000  49.996651
   1302   0.000000 128.279105
   2185   0.000000 120.408670
     20   0.000000 162.330272
   2213   0.000000  63.047712
   1432   0.000000 120.977681
    161   0.000000 161.426647
   2031   0.000000 168.519591
   1733   0.000000  65.489424
   1314   0.000000 176.770058
   1440   0.000000 126.203661
     87   0.000000  99.315317
    710   0.000000 155.170788
    837   0.000000  58.844001
   2628   0.000000 149.850299
   1102   0.000000 100.961735
    617   0.000000 166.687939
   2395   0.000000  76.392470
   1218   0.000000 155.838051
    120   0.000000 103.203830
    389   0.000000 152.591107
    362   0.000000 103.987724
     13   0.000000 110.624515
   2388   0.000000 148.459224
   2235   0.000000  75.519749
    310   0.000000  94.952129
   1875   0.000000 143.559853
   1050   0.000000 163.748883
    670   0.000000 114.435417
   2126   0.000000 133.142650
   1095   0.000000  62.283268
    522   0.000000 170.127725
   2299   0.000000  96.926476
    916   0.000000  51.634026
   2630   0.000000 158.080288
   1931   0.000000  66.093093
   1360   0.000000 141.485876
    507   0.000000 157.456375
    332   0.000000 160.288791
    939   0.000000 157.525501
   1559   0.000000  56.434288
   1257   0.000000  56.471112
    177   0.000000  48.120396
   1067   0.000000  96.255470
    272   0.000000  90.775272
   1871   0.000000  77.866639
   1053   0.000000  52.385029
    447   0.000000 148.667788
   2549   0.000000  67.823849
   1461   0.000000 119.735167
   1940   0.000000 172.113478
     70   0.000000 110.496947
    201   0.000000 155.599655
   2087   0.000000  52.194999
   1176   0.000000  55.110112
   1182   0.000000 100.177940
   2189   0.000000  71.440214
   2134   0.000000 140.153930
   2527   0.000000  67.010330
   1431   0.000000 118.973755
    550   0.000000  43.118876
     54   0.000000 160.424942
   1794   0.000000 107.045579
   1554   0.000000  55.087911
   1190   0.000000 169.656475
   1870   0.000000 139.782322
   1723   0.000000  50.844227
   1263   0.000000  56.920830
   1818   0.000000 118.687093
   1912   0.000000  60.749012
   2120   0.000000 125.070938
   2711   0.000000 132.193636
   2059   0.000000  67.827921
   1428   0.000000  62.203729
    266   0.000000 155.849752
   1796   0.000000  51.776693
   1538   0.000000 114.768477
   1134   0.000000  71.324966
   1096   0.000000 114.147828
    209   0.000000 104.033631
    904   0.000000 142.592899
   1470   0.000000 113.095712
   1837   0.000000  59.082019
    207   0.000000  51.605376
    986   0.000000  57.235434
   1809   0.000000 172.662209
   1793   0.000000 117.854791
   1310   0.000000  61.053988
    818   0.000000 115.094592
   2426   0.000000 141.989226
   2795   0.000000 124.834199
    533   0.000000  61.700601
     95   0.000000 105.083785
   1272   0.000000 149.277877
   1022   0.000000  58.798005
   2793   0.000000 131.520876
   2270   0.000000  58.325455
   2105   0.000000 125.650176
   2350   0.000000 176.541360
   1125   0.000000 115.512002
    696   0.000000 111.323675
   1087   0.000000  43.785831
    863   0.000000 158.984655
   2147   0.000000  55.003309
   1382   0.000000  63.669633
   1946   0.000000 124.387474
    587   0.000000 123.024676
   2845   0.000000  65.606344
    887   0.000000  54.858516
   1115   0.000000 111.066334
   1889   0.000000 108.865763
   1269   0.000000  55.527500
   1544   0.000000  61.964130
   2669   0.000000  74.811826
   2484   0.000000 143.160485
    216   0.000000 150.057042
   1090   0.000000  67.180241
   2704   0.000000 145.090833
   1552   0.000000 140.860700
    154   0.000000  57.304774
    676   0.000000  59.022136
   1964   0.000000 124.646885
    330   0.000000 107.625431
    924   0.000000 101.525498
    289   0.000000 179.561651
   2551   0.000000  67.523583
    294   0.000000  92.046201
   1145   0.000000  68.495554
    540   0.000000 144.351422
   1133   0.000000  55.643009
   1289   0.000000 167.229252
   1582   0.000000  61.942000
   1206   0.000000  54.989014
   1951   0.000000 173.615366
    337   0.000000 157.651305
    817   0.000000  46.996057
    464   0.000000  45.514884
   1511   0.000000 174.211917
     73   0.000000 114.630793
   2039   0.000000  76.108690
    745   0.000000  54.730149
    230   0.000000  48.383844
    123   0.000000 159.903498
   1322   0.000000 106.012113
   1191   0.000000  63.160081
   1323   0.000000 112.910285
   1825   0.000000 168.156588
   1505   0.000000  57.804008
   1747   0.000000 148.855807
    731   0.000000 165.945511
   1791   0.000000  59.616876
   1483   0.000000  59.410637
   1309   0.000000 109.778261
      3   0.000000  58.655453
    482   0.000000 169.908919
   2706   0.000000  68.977977
   2258   0.000000 174.701740
   1605   0.000000 120.305851
   1821   0.000000  62.887918
   1240   0.000000 110.289640
    980   0.000000  61.245654
    959   0.000000 114.242681
    435   0.000000  54.193198
   1638   0.000000 102.721112
   2441   0.000000 135.596311
    882   0.000000 100.614361
   1031   0.000000 111.236320
    686   0.000000 149.263897
   2374   0.000000  71.398848
   1283   0.000000 147.109629
    188   0.000000  94.220371
   1644   0.000000  58.242918
   1813   0.000000 110.771508
    124   0.000000  44.957889
   1961   0.000000 172.232577
   1221   0.000000 119.214466
   1625   0.000000 128.326679
   2841   0.000000 134.808392
    965   0.000000 118.743091
   1628   0.000000 128.691781
    812   0.000000 109.571077
    761   0.000000 101.415497
   2060   0.000000 117.724881
   1154   0.000000 117.552894
    415   0.000000 178.204710
   2397   0.000000 136.826077
   1682   0.000000  51.517090
   2332   0.000000 124.246961
   1337   0.000000  92.655321
   1158   0.000000 167.259105
    620   0.000000 152.420044
   1294   0.000000 133.456837
   1731   0.000000  61.000353
   1433   0.000000  65.851608
   2028   0.000000 179.857774
   2164   0.000000 138.890414
   2200   0.000000  52.726036
    419   0.000000  58.696069
    810   0.000000  55.167847
   1464   0.000000 175.611201
   2602   0.000000  67.421534
   2415   0.000000 154.729338
    518   0.000000 113.106806
    851   0.000000 151.856756
    379   0.000000 154.311553
   1078   0.000000 148.021586
   1303   0.000000  66.345048
   1878   0.000000 140.233299
   1603   0.000000 115.401966
   2095   0.000000 173.983756
    166   0.000000 160.759420
    314   0.000000 117.511194
   1894   0.000000 136.804177
   1057   0.000000  98.132488
   1058   0.000000 139.271317
   1270   0.000000 163.688418
   1783   0.000000 145.640506
   2826   0.000000 140.899114
    697   0.000000  98.051801
   1250   0.000000  53.936331
    172   0.000000 112.096650
   1719   0.000000  55.340641
   1367   0.000000  56.521712
   2654   0.000000 169.212154
   1216   0.000000  45.396876
   2204   0.000000  65.422064
     69   0.000000  96.807738
    542   0.000000  49.654884
    221   0.000000  52.428254
    758   0.000000 151.987894
   1330   0.000000 144.343652
   1454   0.000000 178.268079
   2179   0.000000  65.163451
   2199   0.000000  56.914587
   2347   0.000000 125.263581
   2665   0.000000 156.998423
    441   0.000000 105.505413
   2462   0.000000  66.139200
   1027   0.000000  52.433095
   2102   0.000000 168.489099
    871   0.000000  53.459201
   1288   0.000000 109.262109
   2263   0.000000 121.077971
    692   0.000000  56.706943
    956   0.000000 124.810085
   1991   0.000000 117.457163
    921   0.000000 104.516909
   1480   0.000000 130.399482
   2429   0.000000  69.603338
   2517   0.000000  72.854095
   1259   0.000000 176.216233
   2083   0.000000 127.634953
   2314   0.000000  65.375306
   2524   0.000000  77.935495
    275   0.000000  89.961102
    293   0.000000 131.061052
   1007   0.000000 116.775859
   2682   0.000000 141.869066
   1727   0.000000  48.883805
   2381   0.000000  86.654222
   1453   0.000000 117.244808
    386   0.000000 154.922391
   1390   0.000000 162.301474
   2393   0.000000 151.818639
    678   0.000000 134.447388
   1597   0.000000 119.546826
    530   0.000000 102.060821
   2084   0.000000 110.791037
    992   0.000000  46.326610
   2509   0.000000  66.426536
   1996   0.000000 176.943160
   1722   0.000000 116.416365
    624   0.000000  98.255236
   1923   0.000000  67.964620
     84   0.000000  42.077029
   1299   0.000000 108.302656
   1830   0.000000  60.587768
   2503   0.000000 126.805486
    437   0.000000 154.351573
   1708   0.000000 105.220878
    296   0.000000  55.808453
    248   0.000000  48.203711
   2234   0.000000 123.974265
   1680   0.000000 113.913584
   1714   0.000000  59.791511
    684   0.000000  80.988084
   2216   0.000000  58.201884
   2257   0.000000  54.739843
    736   0.000000  43.600131
   1488   0.000000  54.394423
   2497   0.000000 174.598862
    983   0.000000 178.375752
    640   0.000000 119.341157
   2379   0.000000  66.634589
      5   0.000000 108.177160
    902   0.000000 129.317434
   1113   0.000000 151.744769
   1214   0.000000 153.700340
    357   0.000000  51.890502
    752   0.000000  59.244113
   1030   0.000000  83.212128
   2603   0.000000 130.134293
    383   0.000000  53.384361
    951   0.000000 161.244492
   1184   0.000000  49.619566
   1584   0.000000  64.045221
   2296   0.000000 119.326475
   2720   0.000000  80.098161
   2655   0.000000  77.638608
    414   0.000000 120.016964
    772   0.000000 106.548464
   2726   0.000000 153.763989
    397   0.000000  59.367643
    677   0.000000  53.459304
    628   0.000000  98.382653
    351   0.000000 153.624531
   1539   0.000000  57.837120
   1593   0.000000 120.877746
   1203   0.000000 103.497229
   2106   0.000000 175.835560
   1697   0.000000  54.535552
   2384   0.000000 139.633627
    532   0.000000 119.798548
   1754   0.000000 157.874669
    442   0.000000 150.547317
   2128   0.000000 135.360223
   2550   0.000000 150.650586
   1049   0.000000 111.363854
    974   0.000000  61.421838
    621   0.000000 109.197303
    412   0.000000 123.099221
    831   0.000000 114.667105
   1298   0.000000 118.706570
   2636   0.000000  83.607826
   1610   0.000000  65.292942
   1346   0.000000 120.080621
   1999   0.000000  61.202174
    434   0.000000 155.259485
   1555   0.000000  56.031703
      7   0.000000  61.787314
   2452   0.000000 138.794983
   1465   0.000000  62.515488
   2354   0.000000 114.223928
   2569   0.000000  81.650957
    501   0.000000 108.148516
    605   0.000000 110.287702
   2697   0.000000  68.123534
   1135   0.000000 168.886022
   2225   0.000000 172.898372
    457   0.000000  94.185967
    553   0.000000 102.737913
    574   0.000000 175.183309
   1429   0.000000  58.773952
   2088   0.000000 172.177190
    876   0.000000 102.249275
   2146   0.000000 145.799733
    144   0.000000  95.691969
    503   0.000000  59.826464
    979   0.000000 117.130099
    214   0.000000  52.093827
    358   0.000000  49.684311
   1369   0.000000  50.073447
   2278   0.000000  78.204401
   1456   0.000000  58.532912
   2725   0.000000  63.069983
   1175   0.000000 141.976042
   1574   0.000000 105.337734
   2423   0.000000 152.423770
    873   0.000000 155.708476
   1004   0.000000 123.777413
    701   0.000000 157.855283
   1602   0.000000 124.292183
   1997   0.000000 121.038485
   2373   0.000000 133.417018
   2763   0.000000 125.489247
    885   0.000000 150.172563
   2345   0.000000  56.465457
    639   0.000000  59.095709
   2030   0.000000  61.838316
    689   0.000000 102.732288
   1170   0.000000  71.482807
   1599   0.000000  60.851300
    408   0.000000  99.197750
   2707   0.000000 130.204206
   2740   0.000000 142.098007
   1169   0.000000 113.498853
   1728   0.000000 126.226297
   1040   0.000000 109.116304
   1725   0.000000 167.260592
   2195   0.000000 140.496221
   1858   0.000000  62.708360
    996   0.000000  55.568326
   2586   0.000000 147.700132
   1548   0.000000 110.724926
   2672   0.000000 132.898877
   1788   0.000000  99.483666
   1069   0.000000 179.662530
   2658   0.000000 146.122757
   2533   0.000000 142.486903
   2702   0.000000 157.789291
    511   0.000000 157.379815
    625   0.000000 163.362110
   2190   0.000000 177.222249
   1986   0.000000 126.762276
   2511   0.000000 139.734109
   1306   0.000000 170.666907
    291   0.000000  44.553506
   1636   0.000000  54.913783
   1212   0.000000 102.157744
   1701   0.000000  51.904644
    178   0.000000  51.251085
   1533   0.000000 120.142359
    130   0.000000 175.843242
   2500   0.000000 172.552103
    143   0.000000 168.664436
    804   0.000000  54.881223
    593   0.000000  63.817355
    251   0.000000 101.919239
    662   0.000000 151.337033
   1013   0.000000 177.822729
   1091   0.000000 165.363780
   1393   0.000000  59.565882
   1757   0.000000  58.775209
    444   0.000000  50.388943
    185   0.000000  56.033497
   1979   0.000000  55.274736
    880   0.000000  49.505899
   1398   0.000000 129.555772
   1352   0.000000 176.222454
    739   0.000000  59.253047
    865   0.000000  97.916759
   1364   0.000000  52.596295
   1491   0.000000 137.115529
    208   0.000000 153.904700
    762   0.000000 152.036039
    774   0.000000  52.201991
   1070   0.000000 134.078651
   2368   0.000000 147.679196
   1822   0.000000  63.796167
   1015   0.000000 122.273889
   2633   0.000000  67.435297
    552   0.000000 137.815414
    545   0.000000 114.431755
    749   0.000000  58.614635
    795   0.000000 108.234931
   2453   0.000000  68.839601
   2510   0.000000 157.087838
    695   0.000000 102.048280
   1777   0.000000 113.167088
    394   0.000000 105.511185
    964   0.000000  54.516456
   1328   0.000000 167.098819
    954   0.000000  63.028604
   1905   0.000000 109.575469
   1619   0.000000 124.365913
   1233   0.000000 179.759092
    210   0.000000  48.723578
   1973   0.000000  70.916695
   1634   0.000000 115.916992
   1778   0.000000  59.667044
   2610   0.000000  71.348332
   2427   0.000000  64.837455
   2272   0.000000 118.804886
   1842   0.000000  59.286796
   2022   0.000000  63.937183
   1354   0.000000 154.894323
   1326   0.000000 102.746063
   1305   0.000000 121.942634
    217   0.000000  55.453034
     81   0.000000 146.948377
   1896   0.000000 147.254430
    669   0.000000 160.989640
   2480   0.000000 148.337768
   2558   0.000000 159.126375
    725   0.000000 142.711159
   1528   0.000000 179.972815
   1286   0.000000  98.516808
   2832   0.000000  73.147652
   1387   0.000000  60.801774
   2662   0.000000 146.690369
   1513   0.000000  59.739966
   1623   0.000000  67.849235
   1143   0.000000  58.585366
    240   0.000000 147.390655
    834   0.000000  54.460570
   1684   0.000000 125.145624
   2372   0.000000  72.054979
     86   0.000000 167.278814
   1869   0.000000 154.073487
     96   0.000000  93.405869
   2066   0.000000 115.635518
   2745   0.000000 150.704839
    573   0.000000 109.713555
   1892   0.000000  64.331434
   1482   0.000000 134.096166
   2491   0.000000  71.278604
   1419   0.000000 116.488995
   1408   0.000000  61.050753
   1537   0.000000  63.125034
   2790   0.000000  63.092438
    450   0.000000 102.300138
   2390   0.000000  76.013615
   2349   0.000000  69.234711
   1144   0.000000  58.967527
   2499   0.000000  60.642411
    344   0.000000  48.666463
     43   0.000000 159.803280
    283   0.000000  62.794926
    849   0.000000  49.364633
    989   0.000000 129.902953
   1608   0.000000 129.518883
   2145   0.000000 141.511212
   2735   0.000000  73.005861
   2839   0.000000  72.210073
    349   0.000000 106.120175
   1598   0.000000  63.440883
   1239   0.000000 164.225971
   1403   0.000000 124.478341
    733   0.000000 149.319759
   1211   0.000000  56.607328
    483   0.000000  91.394274
   2677   0.000000 103.819788
    517   0.000000  57.020919
   1047   0.000000  61.286023
   1734   0.000000 172.773350
   1904   0.000000  76.947205
   2417   0.000000  71.488866
   2618   0.000000 146.189032
     68   0.000000  54.730709
    962   0.000000 127.014228
    597   0.000000 167.373138
    512   0.000000 100.358896
   1626   0.000000 126.029920
     35   0.000000 112.020940
   2170   0.000000  72.405414
   2242   0.000000 139.437466
   2506   0.000000 114.098015
   2535   0.000000  69.307467
   2313   0.000000 126.594865
   2683   0.000000  79.260545
    894   0.000000 109.213075
   1753   0.000000  99.099460
   1407   0.000000 130.332660
   1882   0.000000  53.060296

Angles # ['angleID', 'angleType', 'atom1', 'atom2', 'atom3']

      1317      1317        82        75        92
      1721      1721        98       102       184
       508       508       147        26       177
       830       830        22        45        83
       832       832        22        45       120
      1678      1678        62        99       170
      1851      1851        18       113        82
      2520      2520        14       169        73
       326       326        59        17       117
       947       947        89        51       203
      2661      2661       102       184       172
       729       729        74        39       128
       928       928       146        50       154
      2505      2505       129       167       175
       705       705       190        37       193
      2353      2353        71       153       192
      1668      1668        20        99        59
      1887      1887        76       116       186
      1596      1596         3        94       132
       149       149        25         8        64
      2588      2588       153       175       167
      1703      1703       112       101       160
      1010      1010        30        55        79
       281       281       169        14       188
       198       198       107        10       193
      1101      1101       157        61       168
      2155      2155        19       138        74
      1117      1117        59        62       170
       616       616        96        32       107
      2410      2410        43       158       201
      1006      1006        22        55        53
       277       277        73        14       169
      2118      2118        69       134        78
      1877      1877        77       115       197
      1165      1165        23        65       117
      2241      2241        44       144       106
       110       110        29         6       165
      1831      1831       102       111       122
      1210      1210        70        68       188
      1527      1527        51        89       158
      2703      2703        29       189        30
      2428      2428        96       160       101
       952       952       122        51       203
      1400      1400       100        80       123
      2013      2013       119       126       178
      1052      1052        49        58       185
        33        33       110         2       116
       823       823       149        44       180
      1479      1479        37        86       112
      1005      1005        22        55        34
      2283      2283        90       147       119
      2325      2325        68       151        72
        50        50        84         3       103
      1613      1613        12        95        63
       489       489       130        25       144
      2391      2391        56       156       110
      1918      1918       164       118       178
       146       146         7         8       178
      1839      1839        37       112        86
      2439      2439         2       161       116
        59        59       103         3       132
       618       618       107        32       129
      2741      2741        37       193       112
       241       241        95        12       127
      2647      2647         2       183         7
       751       751       100        40       139
      2355      2355        72       153       175
       941       941        67        51       122
       222       222       104        11       171
      2091      2091       131       132       176
      2108      2108       162       133       166
      1651      1651       133        97       166
      2253      2253        83       145       100
      2737      2737        10       193       107
      2431      2431       101       160       107
      2822      2822        47       202       108
       436       436        65        23       162
      1781      1781       101       107       193
       284       284        43        15        50
      1833      1833       122       111       172
      1265      1265       192        71       199
      2409      2409        43       158        89
       858       858       158        46       201
      2180      2180        75       140        91
       610       610        21        32        96
      2732      2732       136       192       153
      2830      2830        41       203       142
      1029      1029        38        57        69
      2718      2718       153       190       192
       101       101       140         5       166
      1242      1242        68        70       129
      1760      1760        24       106       130
      2005      2005        64       126       118
       380       380        59        20       157
      1261      1261       127        71       192
       390       390       139        20       157
      2774      2774       155       196       170
       937       937        36        51       135
      1155      1155         5        65        17
      1311      1311        88        74       128
      1173      1173         8        66       146
      1702      1702       107       101       202
       252       252        11        13       171
       449       449        44        24       106
       638       638        22        34       160
      1944      1944        52       121        68
      1640      1640        57        97       133
       433       433        65        23        86
      2378      2378        92       155       105
      1900      1900        23       117        65
      1039      1039        97        57       136
        79        79        95         4       135
       711       711        69        38       113
      2157      2157        19       138       146
      1881      1881         2       116       182
      2401      2401        59       157        61
      1376      1376       134        78       186
      2708      2708       142       189       143
       387       387        99        20       157
      2077      2077       132       131       176
      1051      1051        49        58       152
       396       396        22        21       123
      1375      1375       134        78       185
      2055      2055         7       130        56
      1324      1324        92        75       155
      2458      2458        28       163        81
      1730      1730         3       103        99
      1738      1738        11       104        13
      1956      1956        13       122       142
      2667      2667        78       185       186
      2817      2817        26       202        47
      1652      1652       136        97       166
       994       994       148        54       180
      2723      2723        60       191       100
      1120      1120        65        62       170
      1423      1423        75        82        91
        38        38       116         2       161
      1819      1819        13       111        51
      1054      1054        78        58       152
      2719      2719        39       191        60
      1595      1595         3        94        81
      1908      1908        19       118       178
      1332      1332       155        75       170
      2472      2472       118       164       200
      1171      1171         8        66        42
       568       568       143        29       152
       716       716        27        39        40
       667       667       125        35       126
      1235      1235       134        69       171
      2075      2075       121       131       176
      1356      1356        29        77       165
       833       833        53        45        83
       384       384        84        20       157
       835       835        53        45       120
      1661      1661        69        98       199
       342       342        78        18       113
       735       735       100        39       191
      1660      1660        69        98       171
       364       364        88        19       118
       430       430        47        23       117
       276       276        68        14       188
      1710      1710       174       101       193
       498       498        90        26       147
      2154      2154        19       138        42
      1241      1241        68        70        85
       988       988        36        54       181
      2552      2552        67       172       184
      2182      2182        75       140       204
       663       663       115        35       197
        36        36       110         2       183
      1545      1545       125        90       126
      1581      1581        41        93       120
       534       534        48        28       110
       934       934        36        51        89
      2515      2515        59       168       200
      2518      2518       157       168       200
      1160      1160        17        65        23
      2775      2775        35       197       109
      1150      1150       124        64       178
      2186      2186        91       140       166
      1937      1937        83       120       187
      2810      2810        41       201       158
       602       602       147        31       200
       743       743        27        40        52
      1752      1752        81       105       103
       329       329        62        17       117
      2104      2104        87       133       162
      1450      1450         3        84       103
      1142      1142         8        64       126
       131       131         8         7       198
       535       535        48        28       156
      1562      1562       140        91       166
        58        58       103         3       105
       609       609        21        32        33
      2143      2143       192       136       199
      2318      2318        46       150        50
       899       899       148        48       159
      2516      2516        61       168       157
       846       846        93        46       150
      2096      2096         5       133        97
      1081      1081       128        60       191
      1124      1124       170        62       204
         2         2         2         1        92
       821       821       144        44       149
      1874      1874        49       115       124
        45        45        81         3       103
       360       360        61        19        88
      1567      1567         1        92       195
      1929      1929        45       120        46
      1439      1439        45        83       120
      2799      2799        98       199       136
      1183      1183       114        66       154
      2357      2357        72       153       192
      2755      2755         1       195        81
      1413      1413        94        81       163
      2049      2049         2       130         7
       176       176        84         9       139
      1592      1592       120        93       201
      1873      1873        49       115        77
      1399      1399        85        80       145
      1460      1460       103        84       139
       961       961        40        52       100
      1074      1074        83        60       128
      2158      2158        42       138        74
       866       866        26        47        31
      1114      1114        17        62       204
      2045      2045        32       129       167
       570       570       143        29       189
      2820      2820        26       202       174
       930       930       150        50       154
      1924      1924       118       119       147
      2455      2455         1       163        81
      1782      1782       160       107       193
       456       456        56        24       156
        83        83       135         4       181
      1038      1038        97        57        98
       515       515        20        27       139
       569       569       143        29       165
       807       807       149        43       158
      1207      1207        70        68       121
      2070      2070        73       131       132
      2228      2228       104       143       122
      2750      2750        60       194       150
       158       158        64         8       178
       204       204       167        10       193
       973       973        22        53        93
      1580      1580        41        93        53
      2193      2193        10       141       190
      2762      2762        92       195       155
      2219      2219        13       143        29
       237       237        72        12        95
        17        17       110         1       163
       646       646        96        34       108
       411       411        96        21       123
      2479      2479        29       165       109
      1765      1765        56       106       130
      2328      2328        68       151       188
       152       152        25         8       198
      1019      1019        24        56       106
      1402      1402       123        80       145
      2224      2224        29       143       104
       432       432        47        23       174
       612       612        21        32       129
      2444      2444         5       162        23
       935       935        36        51       111
      2592      2592         3       176       132
      2376      2376        75       155       195
      1594      1594         3        94        48
       591       591        17        31       147
      1925      1925       118       119       164
       477       477         8        25       114
      2281      2281        47       147        90
      1291      1291        14        73       179
      2065      2065         9       131       121
      1442      1442        60        83       120
        77        77        67         4       137
      1758      1758        24       106        25
       855       855       150        46       187
      2538      2538       196       170       204
       189       189        32        10       193
       109       109        29         6       109
      2194      2194        37       141       153
       537       537        48        28       163
      1553      1553        82        91        97
      1572      1572        75        92        82
       757       757        30        41       203
      2474      2474         6       165        29
      1606      1606        81        94       179
      2600      2600        26       177       109
      2277      2277        26       147       119
      1009      1009        30        55        53
       424       424        53        22        55
      2627      2627        24       180       148
      1621      1621        67        95       184
        26        26         1         2       161
      2629      2629        44       180        54
      1706      1706       112       101       202
      1168      1168        62        65       162
      1717      1717        13       102       184
       429       429        47        23       112
      2038      2038       191       128       194
      1252      1252        12        71       127
       476       476         8        25       106
       253       253       102        13       104
      2231      2231       122       143       142
      2360      2360       141       153       192
      1920      1920        90       119       126
      1358      1358        49        77       152
      2160      2160        42       138       146
      1675      1675        59        99       170
      2422      2422        48       159       156
      1911      1911        42       118       164
      1893      1893       183       116       186
       114       114        30         6       109
      2101      2101        86       133       162
      1957      1957        13       122       143
      2211      2211        41       142       189
      2092      2092       131       132       179
      1631      1631        22        96       160
       712       712        69        38       134
       544       544        94        28       156
      1307      1307        50        74        88
       302       302       144        15       154
      1371      1371        58        78       186
      1405      1405         3        81       105
      2494      2494        10       167        70
      2831      2831        51       203        89
      2642      2642        49       182       116
       514       514        20        27        88
       984       984        36        54       135
      2068      2068         9       131       176
      1414      1414        94        81       195
        55        55        94         3       105
      1967      1967       142       122       203
        92        92        65         5       140
      2696      2696        72       188       151
      2419      2419        28       159       148
       958       958         9        52       121
      1506      1506        19        88        74
      2377      2377        75       155       196
      1236      1236        33        70        68
      1139      1139        95        63       173
      1392      1392        33        80       145
      1474      1474        23        86        87
      2090      2090        94       132       179
      1153      1153       126        64       198
       107       107        29         6        55
      1674      1674        59        99       103
      2214      2214       122       142       189
       583       583        53        30        55
      1718      1718        98       102       111
       868       868        26        47       147
      1244      1244        68        70       167
      1266      1266        12        72        71
      1104      1104         5        62        17
       722       722        40        39        74
      1377      1377       185        78       186
      1088      1088       191        60       194
      2812      2812        46       201        93
        18        18       110         1       195
       243       243        95        12       184
      1711      1711       174       101       202
      2591      2591         3       176       131
      2063      2063       106       130       183
      1192      1192        51        67       135
      2202      2202       167       141       190
       806       806       149        43       150
      1615      1615        12        95       172
       205       205        13        11        58
      2210      2210        41       142       143
      2611      2611        42       178       126
      2678      2678       161       186       185
      2838      2838         5       204        75
       985       985        36        54       148
      2004      2004        64       126        90
       354       354       161        18       186
       598       598       117        31       147
      1318      1318        82        75       140
       262       262       111        13       122
       309       309        48        16        63
      1960      1960        51       122       142
      2167      2167         9       139        84
       226       226        63        12        71
       799       799        44        43        46
      2082      2082         3       132       176
       975       975        30        53        45
      1569      1569        18        92        82
      1446      1446       120        83       145
      2329      2329        70       151        72
       112       112        30         6        55
      2020      2020        71       127       199
      2255      2255        83       145       191
      1276      1276        71        72       188
      1336      1336       170        75       204
       160       160        66         8       178
      2285      2285        24       148        54
        11        11        18         1       195
       267       267       143        13       171
      2432      2432       101       160       108
       565       565       104        29       152
       750       750        52        40       139
      2139      2139        87       136       192
      2203      2203       175       141       190
      1618      1618        63        95       172
      2201      2201       167       141       175
      1076      1076        83        60       187
      2150      2150        16       137       181
       864       864        23        47       174
      1564      1564         1        92        75
       754       754        30        41        93
       599       599       117        31       164
      1149      1149       124        64       126
       668       668       125        35       197
       687       687        10        37       112
       650       650        64        35       115
       462       462       106        24       180
      1103      1103       168        61       200
      1688      1688        40       100        52
      2752      2752       128       194       150
       338       338         1        18       161
       363       363        61        19       164
      2504      2504       129       167       151
       546       546        94        28       163
      2009      2009        90       126       119
      1126      1126         4        63        14
      2606      2606         8       178        64
       129       129         8         7       130
      2674      2674        78       186       161
      1284      1284       173        72       175
      1672      1672        20        99       196
       903       903        58        49        77
        60        60       103         3       176
      1178      1178        25        66       154
       800       800        44        43       149
      2461      2461        81       163       110
       300       300       114        15       154
      2321      2321        50       150       187
      1383      1383        34        79       109
      1915      1915       119       118       178
       571       571       152        29       165
       901       901       159        48       179
      2523      2523        68       169        73
       256       256       102        13       143
      2029      2029        50       128        60
      2487      2487         5       166       140
      2205      2205        30       142       122
      2121      2121         4       135        54
      2346      2346        58       152        77
       470       470         7        25        66
       269       269        63        14        73
       500       500        90        26       202
       819       819        43        44       149
       192       192        37        10       141
       260       260       104        13       143
      2398      2398        27       157        59
      1260      1260       127        71       153
      2442      2442        18       161       186
      1119      1119        65        62        99
      2174      2174         5       140        75
       233       233        71        12        95
      2773      2773       105       196       170
      1079      1079       128        60       145
      1457      1457        20        84       103
      1228      1228        38        69       134
      1128      1128         4        63        95
      1443      1443        60        83       123
      1118      1118        59        62       204
      1981      1981        35       124       115
      2788      2788        64       198        76
        27        27         1         2       183
      2433      2433       107       160       108
       134       134        25         7       183
      1622      1622       172        95       184
      2471      2471       118       164       119
      2791      2791        57       199        71
      1566      1566         1        92       155
      2177      2177         5       140       166
      2648      2648         2       183       116
      2673      2673        78       186       116
        82        82       135         4       137
       566       566       104        29       165
        63        63       132         3       176
      2529      2529        62       170        75
      1438      1438        45        83        60
      1589      1589        46        93       201
      1106      1106         5        62        65
      1287      1287        14        73        16
       142       142         7         8        25
      2619      2619        48       179        73
      1455      1455         9        84       139
      1823      1823        13       111       172
      2666      2666        78       185       182
      2459      2459        28       163       110
       356       356        42        19        88
       619       619        21        33        32
      1301      1301       169        73       179
       747       747        39        40       100
      1541      1541        35        90       147
       897       897       137        48       159
       422       422        45        22        55
       911       911       115        49       182
      1278      1278       151        72       173
      1959      1959        51       122       111
      1368      1368        58        78       113
      2639      2639        54       181       137
      1486      1486       112        86       162
      2614      2614       118       178       126
      1850      1850        18       113        78
       218       218        69        11       152
       853       853       120        46       201
      1814      1814        28       110       156
      2386      2386        24       156       110
       700       700       112        37       141
       348       348        82        18       186
      1345      1345        49        76       182
      1384      1384        34        79       177
      2470      2470        31       164       200
       270       270        63        14       169
      1397      1397        85        80       100
      1843      1843        86       112       101
      1036      1036        69        57       136
       688       688        10        37       141
       191       191        37        10       129
       474       474         7        25       144
       325       325        59        17        65
       439       439        86        23       117
       502       502       108        26       147
       376       376        59        20        84
      1936      1936        83       120        93
       564       564       104        29       143
       371       371        27        20        84
      1530      1530       158        89       201
       968       968       100        52       121
      1612      1612         4        95       184
      2623      2623        73       179       132
      2334      2334        72       151       175
       238       238        72        12       127
       661       661       115        35       125
      2339      2339        11       152        29
       145       145         7         8        66
       169       169        52         9        84
      1776      1776        32       107       193
       406       406        45        21        83
      1017      1017         2        56       130
      2069      2069        73       131       121
      1994      1994        35       125       109
      1849      1849        18       113        38
       426       426        55        22        96
      1421      1421        18        82       113
      1646      1646        87        97       166
      2336      2336       167       151       175
      2392      2392        56       156       159
      1292      1292        16        73       131
      2783      2783         7       198        76
       103       103       162         5       166
      2298      2298       159       148       180
      2501      2501        70       167       151
      1045      1045        11        58        78
      2366      2366        15       154       114
       400       400        32        21        96
      2122      2122         4       135        67
       431       431        47        23       162
      1249      1249       129        70       167
      2651      2651         7       183       130
      2344      2344        29       152        77
      2767      2767        75       196       155
       125       125       109         6       189
      1347      1347       116        76       124
      2701      2701         6       189       142
       717       717        27        39        74
       298       298       114        15       144
      1766      1766        56       106       144
      2133      2133        67       135       181
      2361      2361       175       153       190
      1085      1085       145        60       194
       704       704       141        37       193
       766       766        89        41       203
       672       672        51        36       135
      1901      1901        31       117        47
        57        57        94         3       176
      1898      1898        23       117        31
      1424      1424        75        82        92
       809       809        15        44        24
      2396      2396        20       157        61
       601       601       147        31       164
      2286      2286        24       148       137
      1205      1205        14        68       188
       664       664       124        35       125
       957       957         9        52       100
       313       313        63        16        73
      2144      2144         4       137        16
      1363      1363        18        78        58
        71        71        63         4        95
       575       575         6        30        53
      1121      1121        65        62       204
      2385      2385        24       156        56
       445       445       117        23       162
      1700      1700       107       101       174
       606       606        10        32        96
       724       724        40        39       100
      1334      1334       155        75       204
      2288      2288        24       148       180
       709       709        57        38       134
      2635      2635         4       181        54
       428       428        47        23        86
       117       117        55         6        79
      2161      2161        74       138        88
      2233      2233       142       143       189
      2456      2456         1       163       110
       516       516        20        27       157
       421       421        45        22        53
       675       675        54        36        89
      1585      1585        45        93       120
       917       917        15        50       194
      1198      1198       111        67       172
      2776      2776        35       197       115
       923       923       128        50       146
      1256      1256        72        71       127
       374       374        27        20       139
      1845      1845        86       112       193
      1694      1694        52       100       191
      2132      2132        54       135       181
       202       202       141        10       167
      1279      1279       151        72       175
      1273      1273        71        72       153
      1815      1815        28       110       163
      2405      2405        36       158        46
      2072      2072        73       131       176
       171       171        52         9       131
      2149      2149        16       137       148
      1692      1692        52       100        80
       316       316        73        16       137
       127       127         8         7        25
      1832      1832       102       111       172
      2400      2400        27       157       168
      1509      1509        27        88        61
      2478      2478        29       165        77
      1366      1366        18        78       185
      2343      2343        29       152        58
       943       943        67        51       203
      2514      2514        59       168       157
      2243      2243       106       144       114
       816       816        24        44       149
      2026      2026        39       128        74
      2412      2412        46       158       201
      1995      1995        35       125       177
      2778      2778       109       197       115
      2806      2806       164       200       168
      2311      2311        15       150        50
       257       257       102        13       171
      2010      2010        90       126       178
      2466      2466        19       164       119
      1629      1629        22        96        34
      2363      2363       190       153       192
       915       915        15        50       150
        85        85        62         5        65
      1410      1410        28        81       163
      2465      2465        19       164       118
      1262      1262       127        71       199
       322       322        31        17       117
      2728      2728       128       191       145
       870       870        26        47       202
      2306      2306        44       149        54
       814       814        24        44        43
       261       261       104        13       171
      1751      1751         3       105       196
      1980      1980        35       124        76
      1245      1245        85        70       129
       100       100       140         5       162
      1100      1100        88        61       200
       970       970        22        53        41
      1321      1321        82        75       196
        40        40       130         2       161
      1243      1243        68        70       151
      2709      2709        37       190        87
        52        52        84         3       132
       815       815        24        44       144
       536       536        48        28       159
       860       860        23        47        26
      2052      2052         2       130       106
      1913      1913       119       118       126
      2526      2526        73       169       121
      2239      2239        25       144       106
      2681      2681        46       187       150
       438       438        86        23       112
       239       239        72        12       173
      1164      1164        23        65        62
       844       844        43        46       201
       487       487       114        25       130
      2312      2312        15       150       187
      2411      2411        46       158        89
      1177      1177        25        66       146
       699       699        87        37       193
      2042      2042        10       129       167
       936       936        36        51       122
      2284      2284        24       148        48
       890       890        28        48       159
      2035      2035        60       128       194
      2803      2803        31       200       168
       707       707        57        38        91
       427       427        47        23        65
       763       763        89        41        93
      1666      1666       127        98       199
      2404      2404        36       158        43
      1220      1220       169        68       188
      1985      1985        64       124       198
       906       906        76        49        77
      2632      2632        54       180       148
      1350      1350       124        76       182
      1609      1609         4        95        63
      1665      1665       127        98       171
      2729      2729        71       192       136
       184       184        32        10        37
      1504      1504        19        88        39
       346       346        82        18       113
       674       674        51        36       158
      1699      1699       107       101       160
        34        34       110         2       130
      2657      2657        95       184       102
      1865      1865        25       114       154
       206       206        13        11        69
      1880      1880         2       116       161
       486       486       106        25       144
      1435      1435        21        83       120
       305       305         4        16        63
      1838      1838        23       112       193
        16        16       110         1       161
      2749      2749        60       194       128
      2002      2002        35       126       119
       328       328        62        17        65
       359       359        42        19       164
      1992      1992        26       125       177
      1789      1789         6       109        79
      1524      1524        41        89       158
      2056      2056         7       130       106
      1993      1993        35       125        90
      2001      2001        35       126       118
      1425      1425        75        82       113
      1800      1800       125       109       197
       249       249        11        13       111
       157       157        64         8        66
      2289      2289        48       148        54
      1492      1492        37        87       190
      1500      1500       133        87       136
       153       153        42         8        64
       398       398        32        21        45
       673       673        51        36       149
      1441      1441        45        83       145
      2198      2198       153       141       167
      2646      2646       116       182       185
      1854      1854        38       113        82
      1174      1174         8        66       154
      2117      2117        58       134        78
      1213      1213        85        68       169
      1840      1840        37       112       101
      2264      2264        50       146        66
       850       850       120        46       150
      1664      1664       102        98       199
      2032      2032        50       128       194
      2846      2846       140       204       170
         9         9        18         1       161
      1663      1663       102        98       171
       227       227        63        12        72
       455       455        56        24       148
       102       102       140         5       204
      2435      2435         1       161        18
        94        94        65         5       166
       350       350        92        18       161
       611       611        21        32       107
      1863      1863        25       114        66
      2317      2317        43       150       194
      1531      1531       158        89       203
       234       234        71        12       127
      1919      1919        90       119       118
      2018      2018        71       127        98
       404       404        33        21        96
       306       306         4        16        73
      2593      2593         9       176        84
      2053      2053         2       130       183
      2162      2162        74       138       146
       842       842        43        46       158
       608       608        10        32       129
        91        91        65         5       133
       884       884        16        48       148
      1716      1716        13       102       172
       460       460       106        24       156
        12        12        92         1       110
      2695      2695        68       188       173
      1024      1024       106        56       130
       135       135        25         7       198
      1388      1388        33        80        52
       584       584        53        30       142
      1798      1798       125       109       165
      1202      1202        14        68       121
        31        31        56         2       161
      2786      2786         8       198        76
         6         6         2         1       195
      2637      2637         4       181       137
      1422      1422        18        82       140
      1476      1476        23        86       133
       641       641        55        34       108
      1591      1591        53        93       201
      2131      2131        54       135        67
      2425      2425        34       160       101
      1014      1014         2        56        24
      1417      1417       163        81       195
      1444      1444        60        83       145
      1131      1131        12        63        16
      1826      1826        51       111       122
      1550      1550        38        91       113
      1859      1859        15       114        25
      2220      2220        13       143       104
      1704      1704       112       101       174
      2650      2650         7       183       116
       922       922        74        50       194
      1048      1048        11        58       185
        65        65        16         4        67
       719       719        27        39       100
      2844      2844        75       204       140
       385       385        99        20       103
      2617      2617        16       179        94
      2713      2713        87       190       141
        51        51        84         3       105
      1990      1990        26       125        90
       193       193        37        10       167
      2843      2843        62       204       170
      1746      1746        29       104       152
      1732      1732        20       103        84
       355       355        42        19        61
      2369      2369        50       154       114
      2777      2777        35       197       165
      1670      1670        20        99       103
      2057      2057         7       130       183
       738       738         9        40        39
       165       165        40         9       121
      1846      1846       101       112       174
       879       879       147        47       202
      2076      2076       132       131       169
        47        47        81         3       132
      1041      1041        98        57       136
       504       504       108        26       202
       660       660       115        35       124
      2080      2080         3       132        94
      2671      2671        18       186       161
      1503      1503        19        88        27
      1110      1110        17        62        59
      2136      2136        57       136       192
        89        89        62         5       166
       665       665       124        35       126
       798       798        15        43       158
       949       949       111        51       135
      1835      1835        23       112        86
      2717      2717       141       190       192
       382       382        84        20       103
       920       920        74        50       150
      2156      2156        19       138        88
       953       953       135        51       203
      1234      1234        98        69       171
       292       292        44        15       150
      1864      1864        25       114       144
      2014      2014        12       127        71
      2436      2436         1       161       116
      2074      2074       121       131       169
      2036      2036        74       128       191
      2265      2265        50       146        74
       219       219        69        11       171
      1750      1750         3       105       155
        41        41       130         2       183
        37        37       116         2       130
       848       848        93        46       187
      2571      2571        23       174       112
      2827      2827        41       203        51
       245       245       127        12       184
      2561      2561        12       173        72
       368       368       118        19       164
      2438      2438         2       161        18
      1319      1319        82        75       155
       579       579        41        30        53
       370       370        27        20        59
       826       826        21        45        83
      2469      2469        31       164       119
       367       367       118        19       138
       796       796        15        43       149
      1709      1709       160       101       202
       790       790       118        42       178
       604       604        10        32        21
      2468      2468        31       164       118
      1802      1802       165       109       197
      1763      1763        25       106       130
      1248      1248       129        70       151
      2652      2652       116       183       130
       391       391        22        21        32
      1351      1351       124        76       198
      1907      1907        19       118       164
       454       454        56        24       106
      1499      1499        97        87       190
      1693      1693        52       100       145
       168       168        40         9       176
      2486      2486         5       166       133
      1515      1515        61        88        74
      2477      2477         6       165       197
      1780      1780       101       107       160
      1021      1021        24        56       130
      2566      2566        63       173        72
      2670      2670        18       186       116
      1340      1340         7        76       124
      2608      2608         8       178       126
      2751      2751        60       194       187
       183       183       139         9       176
        14        14        92         1       163
       341       341        78        18        92
       467       467       156        24       180
       247       247        11        13       102
      1108      1108         5        62       170
      2537      2537        99       170       204
      1607      1607       132        94       179
      1954      1954        13       122        51
       841       841        43        46       150
       453       453        44        24       180
      1436      1436        21        83       123
      2324      2324        68       151        70
       955       955         9        52        80
      2450      2450        23       162       133
       991       991       135        54       180
      2290      2290        48       148       137
      1097      1097        27        61       200
       726       726        40        39       191
       759       759        53        41        93
      1308      1308        50        74       128
       893       893        94        48       148
      2172      2172        27       139        84
       111       111        29         6       189
      2017      2017        12       127       199
       585       585        53        30       189
      1950      1950        68       121       169
      2485      2485         5       166        97
      2522      2522        14       169       131
      1673      1673        59        99        62
      1003      1003         6        55        79
      1271      1271        12        72       188
       282       282       173        14       188
      1724      1724       111       102       184
      2821      2821        47       202       101
       554       554         6        29       104
       825       825        21        45        53
       636       636        22        34        96
      2292      2292        48       148       180
      2003      2003        35       126       178
      1316      1316       138        74       146
      1247      1247        85        70       167
       440       440        86        23       162
      2280      2280        31       147       119
       402       402        33        21        45
       478       478         8        25       130
      1735      1735        84       103        99
       211       211        58        11        69
      1943      1943         9       121       169
       263       263       111        13       143
      1745      1745        29       104       143
      1630      1630        22        96       107
       652       652        64        35       125
      1355      1355        29        77       152
       737       737         9        40        27
      1072      1072        99        59       168
      1658      1658        69        98       102
      2721      2721        39       191       128
       857       857       158        46       187
      1055      1055        78        58       185
      2563      2563        14       173        63
      1426      1426        75        82       140
       589       589        17        31        47
       524       524        40        27       139
       892       892        94        48       137
        46        46        81         3       105
       115       115        30         6       165
       770       770       142        41       201
        32        32        56         2       183
      2140      2140        87       136       199
      2064      2064         9       131        73
       271       271        63        14       173
       797       797        15        43       150
       156       156        42         8       198
      1329      1329       140        75       170
       148       148        25         8        42
      1543      1543       119        90       126
      2293      2293        54       148       137
      2555      2555        95       172       184
       375       375        27        20       157
       409       409        83        21        96
      1884      1884        76       116       161
      1642      1642        57        97       166
       715       715       113        38       134
      2680      2680        46       187       120
      1683      1683        39       100        40
      2089      2089        94       132       176
      1447      1447       123        83       145
      2295      2295        54       148       180
      1614      1614        12        95        67
      1514      1514        39        88       138
       748       748        39        40       139
      1159      1159         5        65       162
      1490      1490        37        87       133
      2266      2266        50       146       138
       509       509       147        26       202
      1772      1772        10       107       193
      1209      1209        70        68       169
       694       694        86        37       190
       488       488       114        25       144
       755       755        30        41       142
      2664      2664        58       185       182
      2805      2805        61       200       168
       932       932       154        50       194
       635       635        22        34        79
       331       331        65        17       117
      2208      2208        30       142       203
      2534      2534        75       170       196
      1659      1659        69        98       127
      1395      1395        52        80       123
      2079      2079         3       132        73
      2828      2828        41       203        89
      2387      2387        24       156       159
      1404      1404         3        81        94
        25        25         1         2       130
       133       133        25         7       130
       557       557         6        29       165
      1000      1000         6        55        30
      1938      1938        93       120       187
      1188      1188         4        67       135
      1617      1617        63        95        67
      1026      1026       110        56       130
      1132      1132        12        63        95
      1472      1472        80        85       121
      1667      1667       171        98       199
      1984      1984        64       124       115
      1059      1059        17        59        20
      1551      1551        38        91       140
      1577      1577       155        92       195
      2625      2625        24       180        44
      2692      2692        14       188       173
      1516      1516        61        88       138
       190       190        37        10       107
      2727      2727       100       191       145
       228       228        63        12        95
      1267      1267        12        72       151
      1489      1489        37        87        97
      2067      2067         9       131       169
      2098      2098         5       133       166
      2808      2808        41       201        89
      2300      2300        36       149        44
      2698      2698       151       188       173
      1264      1264       153        71       199
        61        61       105         3       132
       491       491        47        26       108
      2739      2739        37       193       101
      2245      2245        60       145        83
      2159      2159        42       138        88
      2660      2660       102       184       127
      2626      2626        24       180        54
       658       658        90        35       126
        53        53        84         3       176
       401       401        32        21       123
       353       353       113        18       186
      2061      2061        56       130       106
       180       180       121         9       176
       867       867        26        47       117
      1028      1028       130        56       156
      2301      2301        36       149        54
       792       792       138        42       178
       273       273        68        14        73
      2562      2562        12       173       188
       523       523        40        27        88
      2530      2530        62       170        99
      1415      1415       105        81       163
      1547      1547       126        90       147
       555       555         6        29       143
       929       929       146        50       194
      2734      2734       153       192       190
      1520      1520        36        89       158
      1529      1529        51        89       203
       910       910        77        49       182
      1583      1583        45        93        46
       236       236        71        12       184
      2414      2414        24       159        28
      1687      1687        39       100       191
      2542      2542        11       171       102
      2753      2753       128       194       187
       713       713        91        38       113
      1044      1044        11        58        49
      1855      1855        38       113        91
       782       782        19        42       146
       780       780        19        42       118
      1685      1685        39       100        80
      1295      1295        16        73       179
       288       288        43        15       154
      2274      2274        26       147        31
      2800      2800       127       199       136
      1495      1495        86        87       136
      2567      2567        63       173       188
        80        80        95         4       137
      2226      2226        29       143       142
      1475      1475        23        86       112
       767       767        93        41       142
       242       242        95        12       173
       742       742        27        40        39
       927       927       146        50       150
      1086      1086       187        60       191
      1587      1587        46        93        53
       443       443       112        23       162
       366       366        88        19       164
      2044      2044        32       129        70
      1449      1449         3        84        20
       666       666       124        35       197
      2342      2342        11       152       104
      1824      1824        51       111        67
      2021      2021        98       127       184
       365       365        88        19       138
      1891      1891       182       116       183
      2599      2599        26       177        79
       317       317        73        16       179
      2644      2644        76       182       116
      1484      1484        87        86       162
      1098      1098        88        61       157
      1799      1799       125       109       177
      2789      2789        64       198       124
      1820      1820        13       111        67
       647       647        96        34       160
      1089      1089        19        61        27
      1756      1756       103       105       196
       913       913        15        50       128
        76        76        67         4       135
      1141      1141         8        64       124
      1186      1186         4        67        95
       141       141       183         7       198
       274       274        68        14       169
      2615      2615        16       179        48
       993       993       148        54       149
       520       520        39        27       139
      1834      1834        23       112        37
      1968      1968       143       122       203
       721       721        27        39       191
       381       381        84        20        99
      1556      1556        82        91       166
       469       469         7        25         8
      2521      2521        14       169       121
      2756      2756         1       195        92
      1643      1643        87        97        91
      1194      1194        95        67       111
         4         4         2         1       161
       151       151        25         8       178
      2668      2668       182       185       186
       139       139       130         7       183
      1632      1632        32        96        34
      1297      1297       131        73       169
      1300      1300       132        73       179
       264       264       111        13       171
       224       224       134        11       171
       225       225       152        11       171
      1803      1803       177       109       197
      1497      1497        97        87       133
      1268      1268        12        72       153
      2649      2649         2       183       130
      2730      2730        71       192       153
      1136      1136        14        63       173
      1935      1935        46       120       187
      2062      2062        56       130       183
       137       137        76         7       183
       786       786        66        42       146
      1353      1353        29        77        49
       784       784        66        42       118
       869       869        26        47       174
       250       250        11        13       122
      1955      1955        13       122       111
       908       908        76        49       182
      1099      1099        88        61       168
       655       655        90        35       115
      1886      1886        76       116       183
      2192      2192        10       141       175
      2743      2743       101       193       112
      1037      1037        69        57       199
      1806      1806         1       110        56
      1343      1343        49        76       116
       723       723        40        39        88
      2498      2498        10       167       175
      1325      1325        92        75       170
       321       321        31        17        65
      1179      1179        42        66       114
      2532      2532        62       170       204
       492       492        47        26       125
      1147      1147        35        64       178
      1890      1890       161       116       186
      1627      1627        21        96       160
       741       741         9        40       139
      1452      1452         3        84       176
       592       592        17        31       164
      2027      2027        39       128       191
      1187      1187         4        67       111
      1282      1282       153        72       175
      2127      2127        36       135       181
       771       771       142        41       203
      2476      2476         6       165       109
      2467      2467        19       164       200
      2747      2747        50       194       150
      1764      1764        25       106       144
      2784      2784         7       198       124
      1148      1148        35        64       198
      2781      2781         7       198         8
      2323      2323       187       150       194
       653       653        64        35       126
       977       977        30        53        93
      1304      1304        39        74       128
      1077      1077        83        60       191
      1481      1481        37        86       162
       862       862        23        47       117
      2604      2604       109       177       125
        48        48        81         3       176
      1002      1002         6        55        53
      1224      1224        11        69       134
      2331      2331        70       151       175
      1726      1726       171       102       184
      2715      2715        87       190       192
       643       643        79        34        96
       960       960        40        52        85
      2303      2303        43       149        44
      1008      1008        30        55        34
      2447      2447         5       162       133
       265       265       122        13       143
      1953      1953       131       121       169
      2579      2579        72       175       141
       286       286        43        15       144
      2837      2837         5       204        62
       203       203       141        10       193
      1808      1808         1       110       163
       856       856       150        46       201
       824       824        21        45        22
        75        75        67         4        95
       519       519        39        27        88
      1225      1225        11        69       171
      1971      1971        21       123        83
      2304      2304        43       149        54
      1001      1001         6        55        34
      1811      1811         2       110       156
      1370      1370        58        78       185
      1784      1784        26       108       160
      1654      1654        57        98       102
      2227      2227        29       143       189
      1107      1107         5        62        99
      1152      1152       126        64       178
      2481      2481        77       165       109
       559       559        77        29       104
      1437      1437        21        83       145
        21        21       163         1       195
      1379      1379         6        79        55
      1349      1349       116        76       198
      1966      1966       142       122       143
      1458      1458        20        84       139
      1448      1448         3        84         9
      1157      1157         5        65        62
       613       613        33        32        96
      1681      1681       103        99       196
      2247      2247        60       145       123
       969       969        22        53        30
       595       595        47        31       147
       971       971        22        53        45
       938       938        36        51       203
      1246      1246        85        70       151
      2024      2024        39       128        50
      2512      2512        17       168       200
       630       630        70        33       129
      1200      1200        14        68        70
      1853      1853        38       113        78
       416       416        21        22        96
        24        24         1         2       116
       925       925       128        50       154
       679       679        89        36       135
      2153      2153       148       137       181
      2736      2736        10       193       101
      1401      1401       100        80       145
       461       461       106        24       159
      1801      1801       165       109       177
      2587      2587       151       175       167
       327       327        59        17       168
       623       623        21        33       129
       420       420        34        22        96
      1093      1093        19        61       200
      2641      2641        49       182        76
       645       645        79        34       160
       506       506       125        26       177
      2577      2577       101       174       202
      2191      2191        10       141       167
       451       451        44        24       156
        98        98       133         5       166
       254       254       102        13       111
       607       607        10        32       107
       596       596        47        31       164
       708       708        57        38       113
      1885      1885        76       116       182
      2238      2238        25       144        44
       633       633       123        33       129
       764       764        89        41       142
      1219      1219       151        68       188
      1810      1810         2       110        56
      2124      2124        36       135        51
      1655      1655        57        98       127
       931       931       150        50       194
      1162      1162        17        65       117
      1338      1338         7        76        49
       783       783        19        42       178
       258       258       104        13       111
      1867      1867        66       114       154
       714       714        91        38       134
      2819      2819        26       202       108
      2578      2578       112       174       202
       132       132        25         7        76
       802       802        44        43       158
      1761      1761        24       106       144
      2694      2694        68       188       151
      1420      1420        18        82        92
       320       320        31        17        62
      2797      2797        71       199       136
      1063      1063        17        59       168
      1156      1156         5        65        23
      1742      1742        13       104        29
      1061      1061        17        59        99
      1372      1372       113        78       134
      2364      2364        15       154        50
      2724      2724        60       191       128
       886       886        16        48       179
      2451      2451        65       162        86
      1645      1645        87        97       136
      1755      1755       103       105       155
       854       854       150        46       158
      2621      2621        48       179       132
       547       547       110        28       156
       918       918        74        50       128
       773       773         8        42        19
       126       126       165         6       189
      1222      1222        11        69        57
      2071      2071        73       131       169
      1844      1844        86       112       174
       659       659        90        35       197
      1657      1657        57        98       199
      1536      1536        26        90       126
      2181      2181        75       140       166
       878       878       147        47       174
      1656      1656        57        98       171
      2814      2814        89       201        93
       987       987        36        54       180
       562       562        77        29       165
      1812      1812         2       110       163
       448       448        44        24        56
       199       199       129        10       141
       572       572       152        29       189
      2008      2008        90       126       118
       229       229        63        12       127
      1166      1166        23        65       162
      2544      2544        13       171        98
      2215      2215       122       142       203
       525       525        40        27       157
      2047      2047        33       129       167
       627       627        32        33       129
      2141      2141        97       136       192
      1396      1396        52        80       145
      2554      2554        95       172       111
        93        93        65         5       162
       531       531       139        27       157
      2733      2733       136       192       190
      1293      1293        16        73       132
      2607      2607         8       178       118
      1463      1463        52        85        68
      1686      1686        39       100       145
      2492      2492        97       166       140
      2232      2232       122       143       189
       881       881        16        48        28
      1477      1477        23        86       162
      1378      1378         6        79        34
      1774      1774        32       107       101
      1989      1989        26       125        35
      1109      1109         5        62       204
      2546      2546        69       171        98
       472       472         7        25       114
      2638      2638        54       181       135
       787       787        66        42       178
      2573      2573        47       174       101
       119       119        55         6       165
      2568      2568        72       173       188
      1987      1987        76       124       198
      1775      1775        32       107       160
      2525      2525        68       169       131
      1712      1712       193       101       202
      1707      1707       160       101       174
      1897      1897        17       117        65
      2622      2622        73       179        94
       976       976        30        53        55
       560       560        77        29       143
      1720      1720        98       102       172
       278       278        73        14       173
      2320      2320        46       150       194
      1032      1032        38        57       136
      1341      1341         7        76       182
      1917      1917       126       118       178
        72        72        63         4       135
       567       567       104        29       189
      1737      1737        99       103       105
      2418      2418        28       159        48
       681       681        89        36       158
      1827      1827        51       111       172
      2249      2249        80       145        83
      1229      1229        38        69       171
      1507      1507        19        88       138
      1948      1948        68       121        85
       718       718        27        39        88
       576       576         6        30        55
      1065      1065        20        59        99
      1669      1669        20        99        62
       297       297        50        15       154
      2605      2605         8       178        42
      1487      1487       133        86       162
      2416      2416        24       159       148
      2835      2835        89       203       142
       311       311        48        16       137
       706       706        57        38        69
      2137      2137        57       136       199
      2507      2507       141       167       175
       845       845        93        46       120
      1635      1635        34        96       107
       852       852       120        46       187
      1180      1180        42        66       146
       471       471         7        25       106
        42        42       161         2       183
      1941      1941         9       121        85
      1469      1469        68        85       121
      1899      1899        23       117        47
      1736      1736        84       103       105
       813       813        15        44       180
      2519      2519        14       169        68
       549       549       110        28       163
      2315      2315        43       150        50
      1020      1020        24        56       110
        88        88        62         5       162
       680       680        89        36       149
      1649      1649        91        97       166
      1523      1523        41        89        51
       194       194        37        10       193
       926       926       128        50       194
      1335      1335       170        75       196
        62        62       105         3       176
      1146      1146        35        64       126
      2463      2463       110       163       195
      1563      1563         1        92        18
       997       997       149        54       181
      1866      1866        66       114       144
       301       301       144        15       150
       413       413        21        22        45
       615       615        33        32       129
      2305      2305        43       149       180
       335       335         1        18        82
      2787      2787         8       198       124
      1729      1729         3       103        84
      1856      1856        78       113        82
      1231      1231        57        69       134
      2464      2464        19       164        31
      1331      1331       140        75       204
       948       948       111        51       122
       280       280       169        14       173
       527       527        61        27       139
      1082      1082       128        60       194
      2761      2761        81       195       163
      1647      1647        91        97       133
      2836      2836       122       203       142
       801       801        44        43       150
       140       140       130         7       198
      2287      2287        24       148       159
       896       896       137        48       148
      1624      1624        21        96        32
       417       417        34        22        45
       539       539        81        28       110
      2407      2407        36       158       201
      1232      1232        57        69       171
      1965      1965       111       122       203
      1633      1633        32        96       107
       138       138        76         7       198
      2259      2259        42       146        50
      2138      2138        87       136        97
       345       345        82        18        92
      1939      1939         9       121        52
      1903      1903        47       117        65
       895       895        94        48       179
      2316      2316        43       150       187
       395       395        22        21        96
       981       981        45        53        55
      2656      2656        12       184       172
       940       940        67        51       111
       654       654        64        35       197
       410       410        83        21       123
      1361      1361       115        77       165
      2048      2048        70       129       167
      1459      1459        20        84       176
      1762      1762        25       106        56
      1042      1042        98        57       199
      2685      2685        60       187       194
      2443      2443       116       161       186
      1075      1075        83        60       145
       122       122        79         6       165
       164       164        40         9        84
      1226      1226        38        69        57
      1679      1679        62        99       196
      2613      2613        64       178       126
       702       702       112        37       193
      2365      2365        15       154        66
      2802      2802        31       200       164
      1947      1947        52       121       169
      1970      1970        21       123        80
      1140      1140         8        64        35
       794       794        15        43        44
      1217      1217       121        68       188
      1043      1043       136        57       199
      2406      2406        36       158        89
       690       690        10        37       193
       347       347        82        18       161
      1313      1313        88        74       146
      2103      2103        87       133        97
      2375      2375        75       155       105
      2631      2631        44       180       149
      2276      2276        26       147        90
      2473      2473       119       164       200
        49        49        84         3        94
       521       521        39        27       157
       999       999         6        55        22
      1962      1962        51       122       203
      1974      1974        33       123        83
      2050      2050         2       130        25
      1696      1696        80       100       191
      1934      1934        46       120        93
      1952      1952        85       121       169
      2840      2840         5       204       170
        30        30        56         2       130
      2115      2115        38       134        78
        90        90        62         5       204
      2229      2229       104       143       142
      1549      1549        38        91        97
      2684      2684        60       187       150
      2553      2553        95       172       102
      1739      1739        11       104        29
       760       760        53        41       142
      2399      2399        27       157        61
       808       808       150        43       158
      1785      1785        26       108       202
      2731      2731        71       192       190
       465       465       148        24       180
      2449      2449        23       162        86
      2766      2766        75       196       105
      1012      1012        34        55        79
      1836      1836        23       112       101
       295       295        50        15       144
      1525      1525        41        89       201
      2557      2557       102       172       184
      2710      2710        37       190       141
      2764      2764       155       195       163
      2829      2829        41       203       122
       526       526        61        27        88
      1787      1787        34       108       202
      1137      1137        16        63        95
      2240      2240        25       144       114
       299       299       114        15       150
      1579      1579        41        93        46
      1546      1546       125        90       147
      1698      1698       107       101       112
       912       912        15        50        74
      1841      1841        37       112       174
       746       746        39        40        52
       484       484       106        25       114
      2541      2541        11       171        98
      2490      2490        91       166       140
        23        23         1         2       110
       513       513        20        27        61
      1691      1691        40       100       191
      2333      2333        72       151       167
      2256      2256       100       145       123
      2659      2659        95       184       172
       324       324        59        17        62
       181       181       131         9       139
       811       811        15        44       144
      1035      1035        69        57        98
      1204      1204        14        68       169
      1312      1312        88        74       138
       167       167        40         9       139
      1385      1385        55        79       109
       728       728        74        39       100
      1575      1575        82        92       155
      1600      1600        28        94       132
      1689      1689        40       100        80
      2054      2054         7       130        25
      2197      2197        37       141       190
      1976      1976        80       123        83
      2691      2691        14       188       151
      1251      1251        12        71        72
      2041      2041        10       129        70
       789       789       118        42       146
       671       671        51        36        89
      1193      1193        51        67       172
      1501      1501       133        87       190
       629       629        70        33       123
      1998      1998       109       125       177
      1888      1888       161       116       182
      1565      1565         1        92        82
      1342      1342         7        76       198
      2130      2130        51       135       181
      2371      2371        66       154       114
      2184      2184        82       140       166
      2019      2019        71       127       184
       827       827        21        45        93
      1639      1639        57        97        91
      2687      2687       120       187       194
      2513      2513        59       168        61
       978       978        41        53        45
      1883      1883         2       116       186
       946       946        89        51       135
       843       843        43        46       187
      1412      1412        94        81       105
      1930      1930        45       120        83
      2475      2475         6       165        77
      2582      2582        72       175       167
      2322      2322        50       150       194
       622       622        21        33       123
      1759      1759        24       106        56
      2801      2801        31       200        61
       392       392        22        21        33
      2196      2196        37       141       175
      2251      2251        80       145       123
       244       244       127        12       173
       805       805        46        43       158
      1060      1060        17        59        62
      2267      2267        50       146       154
      2589      2589         3       176         9
      2714      2714        87       190       153
      1876      1876        77       115       124
       683       683       135        36       158
       909       909        77        49       115
      1215      1215       121        68       151
      2493      2493       133       166       140
      2073      2073       121       131       132
      2268      2268        66       146        74
      2413      2413        89       158       201
      2780      2780       115       197       165
      1254      1254        12        71       192
       740       740         9        40       100
      1223      1223        11        69        98
      2686      2686       120       187       150
      2758      2758         1       195       163
       290       290        44        15       114
       128       128         8         7        76
      2825      2825       101       202       174
      1848      1848       174       112       193
      2112      2112        11       134        78
      2448      2448        23       162        65
      1290      1290        14        73       169
      1816      1816        56       110       156
      1988      1988       115       124       198
       685       685        10        37        86
      1662      1662       102        98       127
       788       788       118        42       138
       118       118        55         6       109
      2237      2237        15       144       114
      2539      2539        11       171        13
        22        22         1         2        56
      2033      2033        60       128        74
      2768      2768        75       196       170
       889       889        28        48       148
       803       803        46        43       149
      2097      2097         5       133       162
      1872      1872        35       115       197
      1333      1333       155        75       196
      2175      2175         5       140        82
       682       682       135        36       149
      1502      1502       136        87       190
      1557      1557        97        91       113
      1928      1928       147       119       164
      2260      2260        42       146        66
       468       468       159        24       180
      2100      2100        86       133        97
       303       303       150        15       154
      1056      1056       134        58       152
       914       914        15        50       146
      1542      1542       119        90       125
       418       418        34        22        53
      2782      2782         7       198        64
      2595      2595         9       176       132
      1389      1389        33        80        85
       150       150        25         8        66
      2460      2460        28       163       195
       393       393        22        21        45
      1386      1386        55        79       177
      2209      2209        41       142       122
      2252      2252        80       145       191
      1327      1327        92        75       204
      2222      2222        13       143       142
      1394      1394        52        80       100
      1285      1285       173        72       188
       231       231        63        12       184
      2169      2169        20       139        40
      2424      2424        34       160        96
       626       626        32        33       123
      2437      2437         1       161       186
      2217      2217       143       142       203
      2705      2705        29       189       143
      1828      1828        67       111       102
      1910      1910        42       118       126
      2109      2109        11       134        38
      2230      2230       104       143       189
      2420      2420        28       159       156
      2352      2352        71       153       190
        44        44        81         3        94
      2362      2362       175       153       192
      1034      1034        69        57        97
      2168      2168        20       139        27
      2575      2575        47       174       202
      2094      2094         5       133        86
       703       703       141        37       190
      2148      2148        16       137        48
      2382      2382       105       155       196
       888       888        28        48       137
      2236      2236        15       144       106
       642       642        55        34       160
       212       212        58        11       104
       580       580        41        30        55
       900       900       148        48       179
      2297      2297       137       148       180
      1411      1411        28        81       195
      1064      1064        20        59        62
       378       378        59        20       103
      2585      2585       141       175       167
       373       373        27        20       103
      2746      2746        50       194       128
      1620      1620        67        95       172
      1508      1508        27        88        39
      2093      2093       176       132       179
      2367      2367        15       154       146
      1671      1671        20        99       170
      1921      1921        90       119       147
      2171      2171        27       139        40
       907       907        76        49       115
       200       200       129        10       167
       838       838        93        45       120
       693       693        86        37       141
      1473      1473        23        86        37
      2351      2351        71       153       175
      2380      2380        92       155       196
       246       246       173        12       184
      1862      1862        15       114       154
       136       136        76         7       130
        64        64        16         4        63
       995       995       148        54       181
      1163      1163        17        65       162
      2310      2310        15       150        46
       657       657        90        35       125
      1933      1933        46       120        83
      1172      1172         8        66       114
       255       255       102        13       122
       458       458        56        24       180
       481       481        66        25       114
      1406      1406         3        81       163
      1817      1817        56       110       163
      1879      1879         2       116        76
      1123      1123        99        62       204
       223       223       134        11       152
      1804      1804         1       110         2
      1518      1518        36        89        41
      2113      2113        38       134        58
      1922      1922        90       119       164
      2043      2043        32       129        33
      2058      2058        25       130        56
      2454      2454         1       163        28
       883       883        16        48       137
      2794      2794        57       199       136
       259       259       104        13       122
       170       170        52         9       121
       179       179       121         9       139
      1650      1650       133        97       136
       318       318       137        16       179
       691       691        86        37        87
      2798      2798        98       199       127
       732       732        88        39       128
      2823      2823        47       202       174
      1167      1167        62        65       117
      1616      1616        12        95       184
        67        67        16         4       135
       121       121        79         6       109
      2261      2261        42       146        74
      2421      2421        48       159       148
       307       307         4        16       137
      2348      2348        77       152       104
      2457      2457         1       163       195
      2434      2434         1       161         2
      2594      2594         9       176       131
      2543      2543        13       171        69
       944       944        89        51       111
      2152      2152        48       137       181
      2609      2609        42       178        64
      2269      2269        66       146       138
      2129      2129        51       135        67
        29        29        56         2       116
      1860      1860        15       114        66
      1560      1560       113        91       140
      2779      2779       109       197       165
       466       466       156        24       159
      1068      1068        62        59        99
       791       791       138        42       146
      1471      1471        70        85       121
      1641      1641        57        97       136
      2564      2564        14       173        72
      2770      2770        99       196       155
       480       480        66        25       106
       399       399        32        21        83
      2440      2440         2       161       186
      2335      2335        72       151       188
      1972      1972        21       123       145
      2187      2187        91       140       204
      2307      2307        44       149       180
       319       319        31        17        59
       859       859       187        46       201
       875       875       117        47       147
      1526      1526        41        89       203
      1637      1637       107        96       160
       452       452        44        24       159
      1571      1571        18        92       195
       828       828        21        45       120
      1769      1769        10       107        96
      2337      2337       167       151       188
      1227      1227        38        69        98
      1519      1519        36        89        51
      2394      2394        20       157        27
      2085      2085        73       132       131
      2545      2545        13       171       102
      1534      1534        26        90       119
      2327      2327        68       151       175
       698       698        87        37       190
      2688      2688       150       187       194
       538       538        81        28        94
       872       872        31        47       147
      1857      1857        78       113        91
      1092      1092        19        61       168
      2383      2383       195       155       196
      2309      2309        15       150        43
      2291      2291        48       148       159
      1695      1695        80       100       145
      2824      2824       101       202       108
      1485      1485       112        86       133
      2223      2223        13       143       189
       182       182       131         9       176
       196       196       107        10       141
      1949      1949        68       121       131
       779       779        19        42        66
       173       173        52         9       176
      1517      1517        74        88       138
       279       279        73        14       188
      2338      2338       175       151       188
      2547      2547        69       171       102
      2282      2282        47       147       119
      1748      1748         3       105        81
      1676      1676        59        99       196
       905       905        58        49       182
       548       548       110        28       159
       967       967        85        52       121
       235       235        71        12       173
      1942      1942         9       121       131
      2804      2804        61       200       164
       528       528        61        27       157
      2769      2769        99       196       105
       963       963        80        52        85
      1011      1011        34        55        53
      1129      1129         4        63       173
      1790      1790         6       109       125
      1374      1374       113        78       186
      1071      1071        99        59       157
      1274      1274        71        72       173
       603       603       164        31       200
      1373      1373       113        78       185
      1770      1770        10       107       101
      2110      2110        11       134        58
      2816      2816        93       201       158
       577       577         6        30       142
      1792      1792         6       109       177
      1073      1073       157        59       168
      1690      1690        40       100       145
      2446      2446         5       162        86
      2576      2576       101       174       112
       919       919        74        50       146
      1280      1280       151        72       188
      1230      1230        57        69        98
      1771      1771        10       107       160
      1861      1861        15       114       144
      2341      2341        11       152        77
       556       556         6        29       152
      2528      2528       121       169       131
      2482      2482        77       165       197
      2760      2760        81       195       155
        66        66        16         4        95
      2496      2496        10       167       141
      2011      2011       118       126       119
       304       304         4        16        48
      2294      2294        54       148       159
       343       343        78        18       161
      1779      1779        96       107       193
      1895      1895        17       117        31
       600       600       117        31       200
      2570      2570        23       174       101
      2676      2676       116       186       161
      2792      2792        57       199        98
      1185      1185         4        67        51
      2218      2218       189       142       203
        78        78        67         4       181
      2173      2173        40       139        84
      2748      2748        50       194       187
      1391      1391        33        80       123
      1767      1767       130       106       144
       590       590        17        31       117
       116       116        30         6       189
        97        97       133         5       162
       195       195       107        10       129
      1451      1451         3        84       139
      1715      1715        13       102       171
       155       155        42         8       178
       648       648       108        34       160
      1558      1558        97        91       140
      2356      2356        72       153       190
      2785      2785         8       198        64
       632       632        80        33       129
      2742      2742       101       193       107
      1744      1744        13       104       152
      1195      1195        95        67       135
      1344      1344        49        76       124
      2759      2759        81       195        92
      2207      2207        30       142       189
       425       425        53        22        96
       268       268        63        14        68
      2246      2246        60       145       100
      1540      1540        35        90       126
      1677      1677        62        99       103
      1521      1521        36        89       201
      2326      2326        68       151       167
      1467      1467        68        85        70
       220       220       104        11       134
      1130      1130        12        63        14
      2262      2262        42       146       138
       730       730        74        39       191
      2119      2119         4       135        36
       744       744        27        40       100
       463       463       148        24       156
      2700      2700         6       189        30
      2135      2135        57       136        97
      1578      1578        41        93        45
      2340      2340        11       152        58
      2580      2580        72       175       151
      2744      2744       107       193       112
       388       388       103        20       139
       312       312        48        16       179
       847       847        93        46       158
      2556      2556       102       172       111
      1498      1498        97        87       136
      2693      2693        68       188        72
      1445      1445       120        83       123
      1926      1926       126       119       147
       933       933        36        51        67
      2616      2616        16       179        73
      2508      2508       151       167       175
      1296      1296       131        73       132
      1434      1434        21        83        60
       147       147         7         8       198
       829       829        22        45        53
       756       756        30        41       201
      2699      2699         6       189        29
      1586      1586        45        93       201
      1829      1829        67       111       122
       734       734       100        39       128
      2771      2771        99       196       170
      2811      2811        46       201        89
      2142      2142        97       136       199
      2598      2598       131       176       132
       333       333       117        17       168
      1258      1258        72        71       192
      2006      2006        64       126       119
      2430      2430        96       160       108
      2495      2495        10       167       129
       493       493        47        26       147
      2560      2560        12       173        63
      2445      2445         5       162        65
      2051      2051         2       130        56
       558       558         6        29       189
        15        15        92         1       195
      1275      1275        71        72       175
      1362      1362       152        77       165
      1320      1320        82        75       170
       990       990       135        54       149
      1496      1496        86        87       190
      1611      1611         4        95       172
       551       551       156        28       163
      2206      2206        30       142       143
      2275      2275        26       147        47
      2796      2796        71       199       127
      2000      2000        35       126        90
      2645      2645        76       182       185
       323       323        31        17       168
      1932      1932        45       120       187
       839       839        43        46        93
      1705      1705       112       101       193
      2408      2408        43       158        46
      1927      1927       126       119       164
      1797      1797        79       109       197
      2689      2689        14       188        68
      2536      2536        99       170       196
       614       614        33        32       107
      1588      1588        46        93       120
      2712      2712        37       190       192
       822       822       144        44       180
      2612      2612        64       178       118
      1112      1112        17        62        99
       777       777         8        42       146
      2370      2370        50       154       146
       775       775         8        42       118
       998       998       180        54       181
      2107      2107        97       133       166
      1161      1161        17        65        62
       334       334         1        18        78
      2081      2081         3       132       131
       340       340        78        18        82
      1573      1573        75        92       155
       541       541        81        28       159
       594       594        47        31       117
       753       753        30        41        89
       369       369       138        19       164
      1749      1749         3       105       103
      1847      1847       101       112       193
      1945      1945        52       121        85
      2565      2565        14       173       188
      2813      2813        46       201       158
        99        99       133         5       204
      2540      2540        11       171        69
      2402      2402        59       157       168
       649       649        64        35        90
       637       637        22        34       108
       793       793       146        42       178
      2765      2765        75       196        99
      2151      2151        48       137       148
      1365      1365        18        78       134
      1348      1348       116        76       182
      2834      2834        89       203       122
      2359      2359       141       153       190
       403       403        33        21        83
      1568      1568        18        92        75
      2624      2624        94       179       132
       578       578         6        30       189
       377       377        59        20        99
      1105      1105         5        62        59
       372       372        27        20        99
      2176      2176         5       140        91
      1466      1466        52        85       121
      1138      1138        16        63       173
      2502      2502        70       167       175
      1535      1535        26        90       125
      1982      1982        35       124       198
      1016      1016         2        56       110
      2597      2597        84       176       132
      1208      1208        70        68       151
       898       898       137        48       179
       213       213        58        11       134
      1253      1253        12        71       153
      1795      1795        79       109       165
       505       505       125        26       147
      1512      1512        39        88        61
      2583      2583       141       175       151
      1468      1468        68        85        80
       720       720        27        39       128
      2489      2489        91       166       133
       656       656        90        35       124
       768       768        93        41       201
      2358      2358       141       153       175
      1281      1281       153        72       173
      1018      1018         2        56       156
      1969      1969        21       123        33
      2807      2807        41       201        46
       776       776         8        42       138
       215       215        58        11       171
         8         8        18         1       110
      2559      2559        12       173        14
       950       950       111        51       203
      1743      1743        13       104       143
      2757      2757         1       195       155
      2581      2581        72       175       153
      1094      1094        27        61        88
       108       108        29         6        79
      1409      1409        28        81       105
      2308      2308        54       149       180
      1902      1902        31       117        65
      2842      2842        62       204       140
         1         1         2         1        18
      2815      2815        89       201       158
       175       175        84         9       131
      1201      1201        14        68        85
       232       232        71        12        72
      1151      1151       124        64       198
      1033      1033        38        57       199
      1807      1807         1       110       156
      2403      2403        61       157       168
      2488      2488        91       166        97
       352       352       113        18       161
       496       496        90        26       108
      1357      1357        49        77       115
      1975      1975        33       123       145
      2273      2273       138       146       154
        56        56        94         3       132
      1478      1478        37        86        87
        28        28        56         2       110
      2643      2643        49       182       185
      2086      2086        73       132       176
      2166      2166         9       139        40
       113       113        30         6        79
       781       781        19        42       138
      1570      1570        18        92       155
      1339      1339         7        76       116
       473       473         7        25       130
       315       315        63        16       179
      1277      1277       151        72       153
      2099      2099        86       133        87
       966       966        85        52       100
      2114      2114        38       134        69
      2483      2483       109       165       197
       285       285        43        15       114
       187       187        32        10       141
      2012      2012       118       126       178
       836       836        83        45        93
       877       877       117        47       202
      2165      2165         9       139        27
      1181      1181        42        66       154
      2178      2178         5       140       204
      2188      2188       166       140       204
       510       510       177        26       202
      1084      1084       145        60       191
       874       874        31        47       202
      1380      1380         6        79       109
      1430      1430        92        82       113
      2319      2319        46       150       187
      2271      2271        74       146       138
      1741      1741        11       104       152
      1127      1127         4        63        16
      1768      1768        10       107        32
      1914      1914       119       118       164
      2078      2078       169       131       176
       423       423        45        22        96
      1416      1416       105        81       195
      1977      1977        80       123       145
      2596      2596        84       176       131
       159       159        64         8       198
       475       475         8        25        66
      2037      2037        74       128       194
      2754      2754       150       194       187
      2640      2640       135       181       137
       407       407        45        21        96
      1418      1418        18        82        75
       581       581        41        30       142
       634       634        22        34        55
      1909      1909        42       118       119
      2548      2548        98       171       102
      1111      1111        17        62        65
       494       494        47        26       177
       106       106        29         6        30
      2584      2584       141       175       153
       163       163        40         9        52
      1522      1522        36        89       203
      2016      2016        12       127       184
      2634      2634       148       180       149
      2738      2738        10       193       112
      1653      1653        57        98        69
       785       785        66        42       138
      1983      1983        64       124        76
      1238      1238        33        70       129
       162       162       178         8       198
        10        10        18         1       163
        74        74        63         4       181
       529       529        88        27       139
      2716      2716       141       190       153
       446       446       117        23       174
      2833      2833        51       203       142
       840       840        43        46       120
      2007      2007        64       126       178
        19        19       161         1       163
      1916      1916       126       118       164
      2025      2025        39       128        60
       186       186        32        10       129
       104       104       162         5       204
      1080      1080       128        60       187
      2590      2590         3       176        84
      1046      1046        11        58       134
       561       561        77        29       152
       651       651        64        35       124
       197       197       107        10       167
       727       727        74        39        88
      2572      2572        23       174       202
      2279      2279        31       147        90
       543       543        94        28       110
      2620      2620        48       179        94
      1786      1786        34       108       160
      2690      2690        14       188        72
       778       778         8        42       178
      2772      2772       105       196       155
      2183      2183        82       140        91
        39        39       116         2       183
      1958      1958        13       122       203
      2111      2111        11       134        69
      1381      1381         6        79       177
      1196      1196        95        67       172
      1197      1197       111        67       135
      1122      1122        99        62       170
       891       891        28        48       179
      2302      2302        36       149       180
      1532      1532       201        89       203
      1062      1062        17        59       157
       405       405        33        21       123
      2125      2125        36       135        54
      1963      1963       111       122       142
      2818      2818        26       202       101
       479       479         8        25       144
      1083      1083       145        60       187
       945       945        89        51       122
      1427      1427        91        82        92
      1561      1561       113        91       166
      2679      2679        46       187        60
       497       497        90        26       125
       631       631        80        33       123
      1255      1255        12        71       199
      2040      2040        10       129        33
      2254      2254        83       145       123
      1852      1852        18       113        91
      1576      1576        82        92       195
      2116      2116        58       134        69
      1648      1648        91        97       136
       499       499        90        26       177
       765       765        89        41       201
      1494      1494        86        87       133
      2034      2034        60       128       191
       339       339         1        18       186
      1199      1199       135        67       172
      1604      1604        48        94       179
       287       287        43        15       150
       490       490        47        26        90
      1116      1116        59        62        99
      2023      2023       184       127       199
      1315      1315       128        74       146
       820       820        43        44       180
      2675      2675        78       186       185
      2389      2389        28       156       110
      1237      1237        33        70        85
      1601      1601        28        94       179
       982       982        45        53        93
      2248      2248        60       145       191
       942       942        67        51       135
      2221      2221        13       143       122
       459       459       106        24       148
      2601      2601        26       177       125
      2212      2212        41       142       203
       586       586        55        30       142
      2244      2244        60       145        80
       495       495        47        26       202
      2015      2015        12       127        98
      1773      1773        32       107        96
      2574      2574        47       174       112
      1023      1023       106        56       110
       105       105       166         5       204
       361       361        61        19       118
      1906      1906        19       118       126
      1189      1189         4        67       172
       861       861        23        47        31
      1740      1740        11       104       143
      2046      2046        33       129        70
      2250      2250        80       145       100
      2531      2531        62       170       196
      2722      2722        39       191       145
      1462      1462       139        84       176
      1868      1868       144       114       154
       588       588       142        30       189
      2330      2330        70       151       167
      2653      2653        12       184        95
       769       769        93        41       203
      2123      2123         4       135       181
       336       336         1        18        92
      1805      1805         1       110        28
      1493      1493        86        87        97
       563       563        77        29       189
       174       174        84         9       121
      1510      1510        27        88        74
      1025      1025       106        56       156
       485       485       106        25       130
      2663      2663        58       185        78
       308       308         4        16       179
      1590      1590        53        93       120
      2163      2163        88       138       146
      2809      2809        41       201        93
       644       644        79        34       108
       582       582        41        30       189
      1713      1713        13       102        98
       972       972        22        53        55
      1978      1978        83       123       145
      1359      1359        49        77       165
      1066      1066        20        59       157
      1302      1302        39        74        50
      2185      2185        82       140       204
        20        20       161         1       195
      2213      2213       122       142       143
      1432      1432       113        82       140
       161       161        66         8       198
      2031      2031        50       128       191
      1733      1733        20       103        99
      1314      1314       128        74       138
      1440      1440        45        83       123
        87        87        62         5       140
       710       710        69        38        91
       837       837        83        45       120
      2628      2628        24       180       149
      1102      1102       157        61       200
       617       617        96        32       129
      2395      2395        20       157        59
      1218      1218       151        68       169
       120       120        55         6       189
       389       389       103        20       157
       362       362        61        19       138
        13        13        92         1       161
      2388      2388        28       156        56
      2235      2235        15       144        44
       310       310        48        16        73
      1875      1875        49       115       197
      1050      1050        49        58       134
       670       670        51        36        54
      2126      2126        36       135        67
      1095      1095        27        61       157
       522       522        40        27        61
      2299      2299        36       149        43
       916       916        15        50       154
      2630      2630        44       180       148
      1931      1931        45       120        93
      1360      1360       115        77       152
       507       507       125        26       202
       332       332        65        17       168
       939       939        67        51        89
      1559      1559        97        91       166
      1257      1257        72        71       153
       177       177        84         9       176
      1067      1067        20        59       168
       272       272        63        14       188
      1871      1871        35       115       124
      1053      1053        78        58       134
       447       447       162        23       174
      2549      2549        67       172        95
      1461      1461       103        84       176
      1940      1940         9       121        68
        70        70        63         4        67
       201       201       129        10       193
      2087      2087        73       132       179
      1176      1176        25        66       114
      1182      1182       114        66       146
      2189      2189        10       141        37
      2134      2134        57       136        87
      2527      2527        73       169       131
      1431      1431        92        82       140
       550       550       156        28       159
        54        54        94         3       103
      1794      1794        79       109       125
      1554      1554        82        91       113
      1190      1190        51        67        95
      1870      1870        35       115        77
      1723      1723       111       102       172
      1263      1263       153        71       192
      1818      1818       156       110       163
      1912      1912        42       118       178
      2120      2120         4       135        51
      2711      2711        37       190       153
      2059      2059        25       130       106
      1428      1428        91        82       113
       266       266       122        13       171
      1796      1796        79       109       177
      1538      1538        35        90       119
      1134      1134        14        63        16
      1096      1096        27        61       168
       209       209        13        11       152
       904       904        58        49       115
      1470      1470        70        85        80
      1837      1837        23       112       174
       207       207        13        11       104
       986       986        36        54       149
      1809      1809         2       110        28
      1793      1793         6       109       197
      1310      1310        50        74       146
       818       818        43        44       144
      2426      2426        34       160       107
      2795      2795        71       199        98
       533       533        48        28        94
        95        95        65         5       204
      1272      1272        71        72       151
      1022      1022        24        56       156
      2793      2793        57       199       127
      2270      2270        66       146       154
      2105      2105        87       133       166
      2350      2350        71       153       141
      1125      1125         4        63        12
       696       696        87        37       112
      1087      1087       187        60       194
       863       863        23        47       147
      2147      2147         4       137       181
      1382      1382        34        79        55
      1946      1946        52       121       131
       587       587        55        30       189
      2845      2845        75       204       170
       887       887        28        48        94
      1115      1115        59        62        65
      1889      1889       161       116       183
      1269      1269        12        72       173
      1544      1544       119        90       147
      2669      2669        18       186        78
      2484      2484         5       166        91
       216       216        69        11       104
      1090      1090        19        61        88
      2704      2704        29       189       142
      1552      1552        38        91       166
       154       154        42         8        66
       676       676        54        36       135
      1964      1964       111       122       143
       330       330        62        17       168
       924       924       128        50       150
       289       289        44        15        50
      2551      2551        67       172       111
       294       294        50        15       114
      1145      1145        35        64       124
       540       540        81        28       156
      1133      1133        12        63       173
      1289      1289        14        73       132
      1582      1582        41        93       201
      1206      1206        70        68        85
      1951      1951        85       121       131
       337       337         1        18       113
       817       817        24        44       180
       464       464       148        24       159
      1511      1511        27        88       138
        73        73        63         4       137
      2039      2039        10       129        32
       745       745        27        40       139
       230       230        63        12       173
       123       123        79         6       189
      1322      1322        82        75       204
      1191      1191        51        67       111
      1323      1323        92        75       140
      1825      1825        51       111       102
      1505      1505        19        88        61
      1747      1747       143       104       152
       731       731        88        39       100
      1791      1791         6       109       165
      1483      1483        87        86       133
      1309      1309        50        74       138
         3         3         2         1       110
       482       482        66        25       130
      2706      2706        30       189       142
      2258      2258       123       145       191
      1605      1605        81        94       132
      1821      1821        13       111       102
      1240      1240        33        70       167
       980       980        41        53        93
       959       959        40        52        80
       435       435        65        23       117
      1638      1638        57        97        87
      2441      2441        18       161       116
       882       882        16        48        94
      1031      1031        38        57        98
       686       686        10        37        87
      2374      2374        75       155        92
      1283      1283       153        72       188
       188       188        32        10       167
      1644      1644        87        97       133
      1813      1813        28       110        56
       124       124       109         6       165
      1961      1961        51       122       143
      1221      1221        11        69        38
      1625      1625        21        96        34
      2841      2841        62       204        75
       965       965        80        52       121
      1628      1628        22        96        32
       812       812        15        44       149
       761       761        53        41       201
      2060      2060        25       130       183
      1154      1154       178        64       198
       415       415        21        22        55
      2397      2397        20       157       168
      1682      1682       170        99       196
      2332      2332        70       151       188
      1337      1337       196        75       204
      1158      1158         5        65       117
       620       620        21        33        70
      1294      1294        16        73       169
      1731      1731         3       103       105
      1433      1433        21        83        45
      2028      2028        39       128       194
      2164      2164         9       139        20
      2200      2200       153       141       190
       419       419        34        22        55
       810       810        15        44        43
      1464      1464        52        85        70
      2602      2602        79       177       109
      2415      2415        24       159        48
       518       518        39        27        61
       851       851       120        46       158
       379       379        59        20       139
      1078      1078        83        60       194
      1303      1303        39        74        88
      1878      1878       124       115       197
      1603      1603        48        94       132
      2095      2095         5       133        87
       166       166        40         9       131
       314       314        63        16       137
      1894      1894        17       117        23
      1057      1057       134        58       185
      1058      1058       152        58       185
      1270      1270        12        72       175
      1783      1783        26       108        34
      2826      2826       108       202       174
       697       697        87        37       141
      1250      1250       151        70       167
       172       172        52         9       139
      1719      1719        98       102       171
      1367      1367        18        78       186
      2654      2654        12       184       102
      1216      1216       121        68       169
      2204      2204        30       142        41
        69        69        16         4       181
       542       542        81        28       163
       221       221       104        11       152
       758       758        53        41        89
      1330      1330       140        75       196
      1454      1454         9        84       103
      2179      2179        75       140        82
      2199      2199       153       141       175
      2347      2347        58       152       104
      2665      2665        58       185       186
       441       441        86        23       174
      2462      2462        81       163       195
      1027      1027       110        56       156
      2102      2102        86       133       166
       871       871        31        47       117
      1288      1288        14        73       131
      2263      2263        42       146       154
       692       692        86        37       112
       956       956         9        52        85
      1991      1991        26       125       109
       921       921        74        50       154
      1480      1480        37        86       133
      2429      2429        96       160       107
      2517      2517        61       168       200
      1259      1259        72        71       199
      2083      2083         3       132       179
      2314      2314        43       150        46
      2524      2524        68       169       121
       275       275        68        14       173
       293       293        44        15       154
      1007      1007        22        55        79
      2682      2682        46       187       194
      1727      1727       172       102       184
      2381      2381       105       155       195
      1453      1453         9        84        20
       386       386        99        20       139
      1390      1390        33        80       100
      2393      2393       110       156       159
       678       678        54        36       158
      1597      1597         3        94       179
       530       530        88        27       157
      2084      2084        73       132        94
       992       992       135        54       181
      2509      2509        17       168        59
      1996      1996        90       125       109
      1722      1722       111       102       171
       624       624        32        33        70
      1923      1923       118       119       126
        84        84       137         4       181
      1299      1299       132        73       169
      1830      1830        67       111       172
      2503      2503       129       167       141
       437       437        65        23       174
      1708      1708       160       101       193
       296       296        50        15       150
       248       248        11        13       104
      2234      2234        15       144        25
      1680      1680       103        99       170
      1714      1714        13       102       111
       684       684       149        36       158
      2216      2216       143       142       189
      2257      2257       100       145       191
       736       736       128        39       191
      1488      1488        37        87        86
      2497      2497        10       167       151
       983       983        55        53        93
       640       640        55        34        96
      2379      2379        92       155       195
         5         5         2         1       163
       902       902        58        49        76
      1113      1113        17        62       170
      1214      1214        85        68       188
       357       357        42        19       118
       752       752        30        41        53
      1030      1030        38        57        97
      2603      2603        79       177       125
       383       383        84        20       139
       951       951       122        51       135
      1184      1184       146        66       154
      1584      1584        45        93        53
      2296      2296       137       148       159
      2720      2720        39       191       100
      2655      2655        12       184       127
       414       414        21        22        53
       772       772       201        41       203
      2726      2726       100       191       128
       397       397        32        21        33
       677       677        54        36       149
       628       628        70        33        80
       351       351        92        18       186
      1539      1539        35        90       125
      1593      1593         3        94        28
      1203      1203        14        68       151
      2106      2106        97       133       162
      1697      1697       145       100       191
      2384      2384        24       156        28
       532       532        48        28        81
      1754      1754        81       105       196
       442       442       112        23       117
      2128      2128        51       135        54
      2550      2550        67       172       102
      1049      1049        49        58        78
       974       974        30        53        41
       621       621        21        33        80
       412       412        21        22        34
       831       831        22        45        93
      1298      1298       131        73       179
      2636      2636         4       181       135
      1610      1610         4        95        67
      1346      1346        49        76       198
      1999      1999        35       126        64
       434       434        65        23       112
      1555      1555        82        91       140
         7         7        18         1        92
      2452      2452        65       162       133
      1465      1465        52        85        80
      2354      2354        72       153       141
      2569      2569        23       174        47
       501       501       108        26       125
       605       605        10        32        33
      2697      2697        72       188       173
      1135      1135        14        63        95
      2225      2225        29       143       122
       457       457        56        24       159
       553       553         6        29        77
       574       574         6        30        41
      1429      1429        91        82       140
      2088      2088        94       132       131
       876       876       117        47       174
      2146      2146         4       137       148
       144       144         7         8        64
       503       503       108        26       177
       979       979        41        53        55
       214       214        58        11       152
       358       358        42        19       138
      1369      1369        58        78       134
      2278      2278        31       147        47
      1456      1456         9        84       176
      2725      2725        60       191       145
      1175      1175        25        66        42
      1574      1574        75        92       195
      2423      2423       148       159       156
       873       873        31        47       174
      1004      1004        22        55        30
       701       701       112        37       190
      1602      1602        48        94        81
      1997      1997        90       125       177
      2373      2373       114       154       146
      2763      2763        92       195       163
       885       885        16        48       159
      2345      2345        29       152       104
       639       639        55        34        79
      2030      2030        50       128        74
       689       689        10        37       190
      1170      1170         8        66        25
      1599      1599        28        94        81
       408       408        45        21       123
      2707      2707        30       189       143
      2740      2740        37       193       107
      1169      1169       117        65       162
      1728      1728         3       103        20
      1040      1040        97        57       199
      1725      1725       171       102       172
      2195      2195        37       141       167
      1858      1858        82       113        91
       996       996       149        54       180
      2586      2586       151       175       153
      1548      1548        38        91        82
      2672      2672        18       186       185
      1788      1788       160       108       202
      1069      1069        62        59       157
      2658      2658        95       184       127
      2533      2533        75       170        99
      2702      2702         6       189       143
       511       511        20        27        39
       625       625        32        33        80
      2190      2190        10       141       153
      1986      1986        76       124       115
      2511      2511        17       168       157
      1306      1306        39        74       146
       291       291        44        15       144
      1636      1636        34        96       160
      1212      1212        85        68       151
      1701      1701       107       101       193
       178       178       121         9       131
      1533      1533        26        90        35
       130       130         8         7       183
      2500      2500        70       167       141
       143       143         7         8        42
       804       804        46        43       150
       593       593        17        31       200
       251       251        11        13       143
       662       662       115        35       126
      1013      1013        53        55        79
      1091      1091        19        61       157
      1393      1393        52        80        85
      1757      1757       155       105       196
       444       444       112        23       174
       185       185        32        10       107
      1979      1979        35       124        64
       880       880       174        47       202
      1398      1398        85        80       123
      1352      1352       182        76       198
       739       739         9        40        52
       865       865        23        47       202
      1364      1364        18        78       113
      1491      1491        37        87       136
       208       208        13        11       134
       762       762        53        41       203
       774       774         8        42        66
      1070      1070        62        59       168
      2368      2368        50       154        66
      1822      1822        13       111       122
      1015      1015         2        56       106
      2633      2633        54       180       149
       552       552       159        28       163
       545       545        94        28       159
       749       749        52        40       100
       795       795        15        43        46
      2453      2453        86       162       133
      2510      2510        17       168        61
       695       695        86        37       193
      1777      1777        96       107       101
       394       394        22        21        83
       964       964        80        52       100
      1328      1328       140        75       155
       954       954         9        52        40
      1905      1905        19       118       119
      1619      1619        63        95       184
      1233      1233        98        69       134
       210       210        13        11       171
      1973      1973        33       123        80
      1634      1634        32        96       160
      1778      1778        96       107       160
      2610      2610        42       178       118
      2427      2427        34       160       108
      2272      2272        74       146       154
      1842      1842        37       112       193
      2022      2022        98       127       199
      1354      1354        29        77       115
      1326      1326        92        75       196
      1305      1305        39        74       138
       217       217        69        11       134
        81        81        95         4       181
      1896      1896        17       117        47
       669       669       126        35       197
      2480      2480        29       165       197
      2558      2558       111       172       184
       725       725        40        39       128
      1528      1528        51        89       201
      1286      1286       175        72       188
      2832      2832        51       203       122
      1387      1387       109        79       177
      2662      2662       127       184       172
      1513      1513        39        88        74
      1623      1623        21        96        22
      1143      1143         8        64       178
       240       240        72        12       184
       834       834        53        45        93
      1684      1684        39       100        52
      2372      2372        66       154       146
        86        86        62         5       133
      1869      1869        35       115        49
        96        96       133         5       140
      2066      2066         9       131       132
      2745      2745        50       194        60
       573       573       165        29       189
      1892      1892       182       116       186
      1482      1482        87        86       112
      2491      2491        97       166       133
      1419      1419        18        82        91
      1408      1408        28        81        94
      1537      1537        26        90       147
      2790      2790        76       198       124
       450       450        44        24       148
      2390      2390        28       156       159
      2349      2349        71       153        72
      1144      1144         8        64       198
      2499      2499        70       167       129
       344       344        78        18       186
        43        43        81         3        84
       283       283        43        15        44
       849       849        93        46       201
       989       989       135        54       148
      1608      1608         4        95        12
      2145      2145         4       137        48
      2735      2735        10       193        37
      2839      2839         5       204       140
       349       349        92        18       113
      1598      1598        28        94        48
      1239      1239        33        70       151
      1403      1403         3        81        28
       733       733        88        39       191
      1211      1211        85        68       121
       483       483        66        25       144
      2677      2677       116       186       185
       517       517        39        27        40
      1047      1047        11        58       152
      1734      1734        20       103       105
      1904      1904        19       118        42
      2417      2417        24       159       156
      2618      2618        16       179       132
        68        68        16         4       137
       962       962        40        52       121
       597       597        47        31       200
       512       512        20        27        40
      1626      1626        21        96       107
        35        35       110         2       161
      2170      2170        20       139        84
      2242      2242        44       144       114
      2506      2506       141       167       151
      2535      2535        75       170       204
      2313      2313        15       150       194
      2683      2683        60       187       120
       894       894        94        48       159
      1753      1753        81       105       155
      1407      1407         3        81       195
      1882      1882         2       116       183
